 vasp.5.4.4.18Apr17-6-g9f103f2a35 (build Dec 13 2019 19:06:22) complex

 executed on             LinuxIFC date 2021.07.03  05:29:34

 INCAR:
 POTCAR:    PAW_PBE Cu_sv_GW 05Dec2013
 POTCAR:    PAW_PBE Al_GW 19Mar2012
 POTCAR:    PAW_PBE O_GW 28Sep2005

 POTCAR:    PAW_PBE Cu_sv_GW 05Dec2013
   VRHFIN =Cu: d10 p1

   TITEL  = PAW_PBE Cu_sv_GW 05Dec2013
   POMASS =   63.546; ZVAL   =   19.000    mass and valenz
   ENMAX  =  391.688; ENMIN  =  293.766 eV

 POTCAR:    PAW_PBE Al_GW 19Mar2012
   VRHFIN =Al: s2p1

   TITEL  = PAW_PBE Al_GW 19Mar2012
   POMASS =   26.982; ZVAL   =    3.000    mass and valenz
   ENMAX  =  240.300; ENMIN  =  180.225 eV

 POTCAR:    PAW_PBE O_GW 28Sep2005
   VRHFIN =O: s2p4

   TITEL  = PAW_PBE O_GW 28Sep2005
   POMASS =   16.000; ZVAL   =    6.000    mass and valenz
   ENMAX  =  414.635; ENMIN  =  310.976 eV

  PAW_PBE Cu_sv_GW 05Dec2013            :
  PAW_PBE Al_GW 19Mar2012               :
  PAW_PBE O_GW 28Sep2005                :

 POSCAR: CuAlO2 BenkoF84
  positions in direct lattice
 exchange correlation table for  LEXCH =       14
   RHO(1)=    0.500       N(1)  =     2000
   RHO(2)=  100.500       N(2)  =     4000

 ion  position               nearest neighbor table
   1  0.000  0.000  0.000-   3 1.85   4 1.85
   2  0.500  0.500  0.500-   3 1.90   4 1.90   3 1.90   3 1.90   4 1.90   4 1.90
   3  0.110  0.110  0.110-   1 1.85   2 1.90   2 1.90   2 1.90
   4  0.890  0.890  0.890-   1 1.85   2 1.90   2 1.90   2 1.90

  LATTYP: Found a trigonal (rhomboedric) cell.
 ALAT       =     5.8622747487
 COS(alpha) =     0.8826433487

  Lattice vectors:

 A1 = (   1.4200545446,   0.8198688751,   5.6282790774)
 A2 = (  -1.4200545446,   0.8198688751,   5.6282790774)
 A3 = (   0.0000000000,  -1.6397377402,   5.6282790774)

Analysis of symmetry for initial positions (statically):
 Subroutine PRICEL returns:
 Original cell was already a primitive cell.

 Routine SETGRP: Setting up the symmetry group for a
 trigonal (rhombohedral) supercell.

 Subroutine GETGRP returns: Found 12 space group operations
 (whereof 12 operations were pure point group operations)
 out of a pool of 12 trial point group operations.

The static configuration has the point symmetry D_3d.

Analysis of symmetry for dynamics (positions and initial velocities):
 Subroutine PRICEL returns:
 Original cell was already a primitive cell.

 Routine SETGRP: Setting up the symmetry group for a
 trigonal (rhombohedral) supercell.

 Subroutine GETGRP returns: Found 12 space group operations
 (whereof 12 operations were pure point group operations)
 out of a pool of 12 trial point group operations.

The dynamic configuration has the point symmetry D_3d.

 Subroutine INISYM returns: Found 12 space group operations
 (whereof 12 operations are pure point group operations),
 and found     1 'primitive' translations

 KPOINTS: find_VBM
  k-points in reciprocal lattice
Space group operators:
 irot       det(A)        alpha          n_x          n_y          n_z        tau_x        tau_y        tau_z
    1     1.000000     0.000000     1.000000     0.000000     0.000000     0.000000     0.000000     0.000000
    2    -1.000000     0.000000     1.000000     0.000000     0.000000     0.000000     0.000000     0.000000
    3     1.000000   180.000000    -0.500000     0.866025    -0.000000     0.000000     0.000000     0.000000
    4    -1.000000   180.000000    -0.500000     0.866025    -0.000000     0.000000     0.000000     0.000000
    5     1.000000   120.000000     0.000000    -0.000000    -1.000000     0.000000     0.000000     0.000000
    6    -1.000000   120.000000     0.000000    -0.000000    -1.000000     0.000000     0.000000     0.000000
    7     1.000000   180.000000     1.000000     0.000000     0.000000     0.000000     0.000000     0.000000
    8    -1.000000   180.000000     1.000000     0.000000     0.000000     0.000000     0.000000     0.000000
    9     1.000000   120.000000     0.000000     0.000000     1.000000     0.000000     0.000000     0.000000
   10    -1.000000   120.000000     0.000000     0.000000     1.000000     0.000000     0.000000     0.000000
   11     1.000000   180.000000     0.500000     0.866025    -0.000000     0.000000     0.000000     0.000000
   12    -1.000000   180.000000     0.500000     0.866025    -0.000000     0.000000     0.000000     0.000000

 SYSTEM =  unknown system
 POSCAR =  CuAlO2 BenkoF84

 Startparameter for this run:
   NWRITE =      2    write-flag & timer
   PREC   = accura    normal or accurate (medium, high low for compatibility)
   ISTART =      0    job   : 0-new  1-cont  2-samecut
   ICHARG =     11    charge: 1-file 2-atom 10-const
   ISPIN  =      1    spin polarized calculation?
   LNONCOLLINEAR =      F non collinear calculations
   LSORBIT =      F    spin-orbit coupling
   INIWAV =      1    electr: 0-lowe 1-rand  2-diag
   LASPH  =      F    aspherical Exc in radial PAW
   METAGGA=      F    non-selfconsistent MetaGGA calc.

 Electronic Relaxation 1
   ENCUT  =  550.0 eV  40.42 Ry    6.36 a.u.  11.21 11.21 11.21*2*pi/ulx,y,z
   ENINI  =  550.0     initial cutoff
   ENAUG  =  982.9 eV  augmentation charge cutoff
   NELM   =     60;   NELMIN=  2; NELMDL=  0     # of ELM steps
   EDIFF  = 0.1E-06   stopping-criterion for ELM
   LREAL  =      F    real-space projection
   NLSPLINE    = F    spline interpolate recip. space projectors
   LCOMPAT=      F    compatible to vasp.4.4
   GGA_COMPAT  = T    GGA compatible to vasp.4.4-vasp.4.6
   LMAXPAW     = -100 max onsite density
   LMAXMIX     =    2 max onsite mixed and CHGCAR
   VOSKOWN=      0    Vosko Wilk Nusair interpolation
   ROPT   =    0.00000   0.00000   0.00000
 Ionic relaxation
   EDIFFG = 0.1E-05   stopping-criterion for IOM
   NSW    =      0    number of steps for IOM
   NBLOCK =      1;   KBLOCK =      1    inner block; outer block
   IBRION =     -1    ionic relax: 0-MD 1-quasi-New 2-CG
   NFREE  =      0    steps in history (QN), initial steepest desc. (CG)
   ISIF   =      2    stress and relaxation
   IWAVPR =     10    prediction:  0-non 1-charg 2-wave 3-comb
   ISYM   =      2    0-nonsym 1-usesym 2-fastsym
   LCORR  =      T    Harris-Foulkes like correction to forces

   POTIM  = 0.5000    time-step for ionic-motion
   TEIN   =    0.0    initial temperature
   TEBEG  =    0.0;   TEEND  =   0.0 temperature during run
   SMASS  =  -3.00    Nose mass-parameter (am)
   estimated Nose-frequenzy (Omega)   =  0.10E-29 period in steps =****** mass=  -0.785E-27a.u.
   SCALEE = 1.0000    scale energy and forces
   NPACO  =    256;   APACO  = 16.0  distance and # of slots for P.C.
   PSTRESS=    0.0 pullay stress

  Mass of Ions in am
   POMASS =  63.55 26.98 16.00
  Ionic Valenz
   ZVAL   =  19.00  3.00  6.00
  Atomic Wigner-Seitz radii
  virtual crystal weights
   VCA    =   1.00  1.00  1.00
   NELECT =      34.0000    total number of electrons
   NUPDOWN=      -1.0000    fix difference up-down

 DOS related values:
   EMIN   =  10.00;   EMAX   =-10.00  energy-range for DOS
   EFERMI =   0.00
   ISMEAR =     0;   SIGMA  =   0.20  broadening in eV -4-tet -1-fermi 0-gaus

 Electronic relaxation 2 (details)
   IALGO  =     68    algorithm
   LDIAG  =      T    sub-space diagonalisation (order eigenvalues)
   LSUBROT=      F    optimize rotation matrix (better conditioning)
   TURBO    =      0    0=normal 1=particle mesh
   IRESTART =      0    0=no restart 2=restart with 2 vectors
   NREBOOT  =      0    no. of reboots
   NMIN     =      0    reboot dimension
   EREF     =   0.00    reference energy to select bands
   IMIX   =      4    mixing-type and parameters
     AMIX     =   0.40;   BMIX     =  1.00
     AMIX_MAG =   1.60;   BMIX_MAG =  1.00
     AMIN     =   0.10
     WC   =   100.;   INIMIX=   1;  MIXPRE=   1;  MAXMIX= -45

 Intra band minimization:
   WEIMIN = 0.0000     energy-eigenvalue tresh-hold
   EBREAK =  0.69E-09  absolut break condition
   DEPER  =   0.30     relativ break condition

   TIME   =   0.40     timestep for ELM

  volume/ion in A,a.u.               =       9.83        66.33
  Fermi-wavevector in a.u.,A,eV,Ry     =   1.559705  2.947414 33.098602  2.432679
  Thomas-Fermi vector in A             =   2.663024

 Write flags
   LWAVE        =      F    write WAVECAR
   LDOWNSAMPLE  =      F    k-point downsampling of WAVECAR
   LCHARG       =      F    write CHGCAR
   LVTOT        =      F    write LOCPOT, total local potential
   LVHAR        =      F    write LOCPOT, Hartree potential only
   LELF         =      F    write electronic localiz. function (ELF)
   LORBIT       =      0    0 simple, 1 ext, 2 COOP (PROOUT), +10 PAW based schemes

 Dipole corrections
   LMONO  =      F    monopole corrections only (constant potential shift)
   LDIPOL =      F    correct potential (dipole corrections)
   IDIPOL =      0    1-x, 2-y, 3-z, 4-all directions
   EPSILON=  1.0000000 bulk dielectric constant

 Exchange correlation treatment:
   GGA     =    PS    GGA type
   VOSKOWN=      0    Vosko Wilk Nusair interpolation
   LHFCALC =     F    Hartree Fock is set to
   LHFONE  =     F    Hartree Fock one center treatment
   AEXX    =    0.0000 exact exchange contribution

 Linear response parameters
   LEPSILON=     F    determine dielectric tensor
   LRPA    =     F    only Hartree local field effects (RPA)
   LNABLA  =     F    use nabla operator in PAW spheres
   LVEL    =     F    velocity operator in full k-point grid
   LINTERFAST=   F  fast interpolation
   KINTER  =     0    interpolate to denser k-point grid
   CSHIFT  =0.1000    complex shift for real part using Kramers Kronig
   OMEGAMAX=  -1.0    maximum frequency
   DEG_THRESHOLD= 0.2000000E-02 threshold for treating states as degnerate
   RTIME   =   -0.100 relaxation time in fs
  (WPLASMAI=    0.000 imaginary part of plasma frequency in eV, 0.658/RTIME)
   DFIELD  = 0.0000000 0.0000000 0.0000000 field for delta impulse in time

 Orbital magnetization related:
   ORBITALMAG=     F  switch on orbital magnetization
   LCHIMAG   =     F  perturbation theory with respect to B field
   DQ        =  0.001000  dq finite difference perturbation B field
   LLRAUG    =     F  two centre corrections for induced B field

 Static calculation
 charge density and potential remain constant during run
 non-spin polarized calculation
 RMM-DIIS sequential band-by-band and
  variant of blocked Davidson during initial phase
 perform sub-space diagonalisation
    before iterative eigenvector-optimisation
 no mixing
 using additional bands           19
 reciprocal scheme for non local part
 use partial core corrections
 calculate Harris-corrections to forces
   (improved forces if not selfconsistent)
 use gradient corrections
 WARNING: stress and forces are not correct
  (second derivative of E(xc) not defined)
 use of overlap-Matrix (Vanderbilt PP)
 Gauss-broadening in eV      SIGMA  =   0.20

  energy-cutoff  :      550.00
  volume of cell :       39.32
      direct lattice vectors                 reciprocal lattice vectors
     1.420054545  0.819868875  5.628279077     0.352099151  0.203284540  0.059224734
    -1.420054545  0.819868875  5.628279077    -0.352099151  0.203284540  0.059224734
     0.000000000 -1.639737740  5.628279077    -0.000000000 -0.406569081  0.059224735

  length of vectors
     5.862274751  5.862274751  5.862274749     0.410860056  0.410860056  0.410860057

 k-points in units of 2pi/SCALE and weight: find_VBM
  -0.14500941 -0.15541504  0.05924234       1.000

 k-points in reciprocal lattice and weights: find_VBM
   0.00009121  0.41193376  0.58827235       1.000

 position of ions in fractional coordinates (direct lattice)
   0.00000000  0.00000000  0.00000000
   0.50000000  0.50000000  0.50000000
   0.10956395  0.10956395  0.10956395
   0.89043605  0.89043605  0.89043605

 position of ions in cartesian coordinates  (Angst):
   0.00000000  0.00000000  0.00000000
   0.00000000  0.00000000  8.44241862
  -0.00000000  0.00000000  1.84996950
   0.00000000  0.00000001 15.03486773

 k-point  1 :   0.0001 0.4119 0.5883  plane waves:    1152

 maximum and minimum number of plane-waves per node :      1152     1152

 maximum number of plane-waves:      1152
 maximum index in each direction:
   IXMAX=   11   IYMAX=   10   IZMAX=   10
   IXMIN=  -11   IYMIN=  -11   IZMIN=  -11

 serial   3D FFT for wavefunctions
 parallel 3D FFT for charge:
    minimum data exchange during FFTs selected (reduces bandwidth)

 initial charge density was supplied:
 number of electron      34.0000002 magnetization
 keeping initial charge density in first step

 Maximum index for augmentation-charges        17661 (set IRDMAX)

 First call to EWALD:  gamma=   0.521
 Maximum number of real-space cells 4x 4x 4
 Maximum number of reciprocal cells 4x 4x 4

--------------------------------------- Iteration      1(   1)  ---------------------------------------

 eigenvalue-minimisations  :    96
 total energy-change (2. order) : 0.3761506E+03  (-0.1728567E+04)
 number of electron      34.0000002 magnetization
 augmentation part       34.0000002 magnetization

 Free energy of the ion-electron system (eV)
  alpha Z        PSCENC =       167.28213848
  Ewald energy   TEWEN  =     -3351.06778565
  -Hartree energ DENC   =     -2400.81965511
  -exchange      EXHF   =         0.00000000
  -V(xc)+E(xc)   XCENC  =       180.92806670
  PAW double counting   =      5402.02430262    -5725.83564433
  entropy T*S    EENTRO =        -0.00001144
  eigenvalues    EBANDS =      -189.86183275
  atomic energy  EATOM  =      6293.50105541
  Solvation  Ediel_sol  =         0.00000000
  free energy    TOTEN  =       376.15063394 eV

  energy without entropy =      376.15064538  energy(sigma->0) =      376.15063966

[...]

 eigenvalue-minimisations  :   120
 total energy-change (2. order) :-0.3833405E+03  (-0.3612105E+03)
 number of electron      34.0000002 magnetization
 augmentation part       34.0000002 magnetization

[...]

--------------------------------------- Iteration      1(  18)  ---------------------------------------

 eigenvalue-minimisations  :    81
 total energy-change (2. order) :-0.6025130E-07  (-0.5709911E-07)
 number of electron      34.0000002 magnetization
 augmentation part       34.0000002 magnetization

 Free energy of the ion-electron system (eV)
  alpha Z        PSCENC =       167.28213848
  Ewald energy   TEWEN  =     -3351.06778565
  -Hartree energ DENC   =     -2400.81965511
  -exchange      EXHF   =         0.00000000
  -V(xc)+E(xc)   XCENC  =       180.92806670
  PAW double counting   =      5402.02430262    -5725.83564433
  entropy T*S    EENTRO =        -0.00000000
  eigenvalues    EBANDS =      -595.22843427
  atomic energy  EATOM  =      6293.50105541
  Solvation  Ediel_sol  =         0.00000000
  free energy    TOTEN  =       -29.21595614 eV

  energy without entropy =      -29.21595614  energy(sigma->0) =      -29.21595614

 average (electrostatic) potential at core
  the test charge radii are     0.8846  1.0406  0.7215
  (the norm of the test charge is              1.0000)
       1 -76.0605       2 -50.7235       3 -69.6804       4 -69.6804

 E-fermi :   7.0147     XC(G=0): -11.9989     alpha+bet :-13.2687

 k-point     1 :       0.0001    0.4119    0.5883
  band No.  band energies     occupation
      1    -105.4652      2.00000
      2     -63.1592      2.00000
      3     -62.9706      2.00000
      4     -62.9603      2.00000
      5     -13.2351      2.00000
      6     -12.9567      2.00000
      7      -2.1677      2.00000
      8      -1.1812      2.00000
      9      -0.2923      2.00000
     10       1.0702      2.00000
     11       1.1689      2.00000
     12       1.8065      2.00000
     13       3.5173      2.00000
     14       4.1127      2.00000
     15       4.5071      2.00000
     16       4.7391      2.00000
     17       5.8521      2.00000
     18       9.5562      0.00000
     19      12.5346      0.00000
     20      15.2812      0.00000
     21      15.5842      0.00000
     22      16.0003      0.00000
     23      17.8161      0.00000
     24      18.2852      0.00000
     25      18.7539      0.00000
     26      21.6143      0.00000
     27      22.5509      0.00000
     28      24.8495      0.00000
     29      27.6977      0.00000
     30      27.8224      0.00000
     31      28.9702      0.00000
     32      29.8170      0.00000
     33      32.2078      0.00000
     34      33.3064      0.00000
     35      33.5332      0.00000
     36      34.9372      0.00000

 soft charge-density along one line, spin component           1
         0         1         2         3         4         5         6         7         8         9
 total charge-density along one line

------------------------ aborting loop because EDIFF is reached ----------------------------------------

  FORCE on cell =-STRESS in cart. coord.  units (eV):
  Direction    XX          YY          ZZ          XY          YZ          ZX
  Alpha Z   167.28214   167.28214   167.28214
  Ewald   -1091.24516 -1091.24515 -1168.58029     0.00000     0.00000     0.00000
  Hartree   890.67464   890.67464   642.09437    -0.00000     0.00000     0.00000
  E(xc)    -219.04887  -219.04887  -218.65772     0.00000     0.00000     0.00000
  Local    -349.30068  -349.30068   -38.68948    -0.00000    -0.00000     0.00000
  n-local  -155.03895  -155.77046  -159.60743     0.62231    -0.81327    -1.41251
  augment   207.18943   207.18943   206.22105     0.00000     0.00000    -0.00000
  Kinetic   600.32477   608.96643   615.74781    -7.48505    -0.54324    -0.93978
  Fock        0.00000     0.00000     0.00000     0.00000     0.00000     0.00000
  Total      54.79239    54.79239    45.81045    -0.00000     0.00000    -0.00000
  in kB    2232.82432  2232.82431  1866.80454    -0.00000     0.00000    -0.00000

 VOLUME and BASIS-vectors are now :
  energy-cutoff  :      550.00
  volume of cell :       39.32
      direct lattice vectors                 reciprocal lattice vectors
     1.420054545  0.819868875  5.628279077     0.352099151  0.203284540  0.059224734
    -1.420054545  0.819868875  5.628279077    -0.352099151  0.203284540  0.059224734
     0.000000000 -1.639737740  5.628279077    -0.000000000 -0.406569081  0.059224735

  length of vectors
     5.862274751  5.862274751  5.862274749     0.410860056  0.410860056  0.410860057

 FORCES acting on ions
    electron-ion (+dipol)            ewald-force                    non-local-force                 convergence-correction
   0.863E-14 0.943E-13 -.122E-12   0.149E-13 -.146E-13 -.114E-12   -.379E-19 -.781E-19 -.353E-18   -.404E-11 -.823E-11 -.113E-10
   -.421E-12 -.522E-12 -.549E-12   -.323E-14 -.364E-14 0.284E-13   0.233E-22 0.450E-21 -.213E-20   0.258E-13 0.439E-13 0.362E-12
   0.226E-10 -.143E-06 -.350E+03   -.196E-14 0.446E-07 0.344E+03   -.652E-16 0.468E-08 0.791E+01   -.198E-11 0.113E-08 -.198E+01
   -.185E-10 0.143E-06 0.350E+03   0.173E-14 -.446E-07 -.344E+03   -.476E-18 -.468E-08 -.791E+01   0.908E-12 -.113E-08 0.198E+01
   0.369E-11 0.130E-10 -.216E-11   0.114E-13 -.139E-13 0.000E+00   -.657E-16 -.146E-15 0.888E-15   -.509E-11 -.111E-10 -.789E-11

 POSITION                                       TOTAL-FORCE (eV/Angst)
      0.00000      0.00000      0.00000         0.000000     -0.000000      0.000000
      0.00000      0.00000      8.44242         0.000000     -0.000000      0.000000
     -0.00000      0.00000      1.84997        -0.000000      0.000000      0.222150
      0.00000      0.00000     15.03487        -0.000000     -0.000000     -0.222150
    total drift:                               -0.000000      0.000000     -0.000000

  FREE ENERGIE OF THE ION-ELECTRON SYSTEM (eV)
  free  energy   TOTEN  =       -29.21595614 eV

  energy  without entropy=      -29.21595614  energy(sigma->0) =      -29.21595614