 vasp.5.4.4.18Apr17-6-g9f103f2a35 (build Dec 13 2019 19:06:22) complex

 executed on             LinuxIFC date 2021.07.02  07:47:30

 INCAR:
 POTCAR:    PAW_PBE Cu_sv_GW 05Dec2013
 POTCAR:    PAW_PBE Al_GW 19Mar2012
 POTCAR:    PAW_PBE O_GW 28Sep2005
 POTCAR:    PAW_PBE Cu_sv_GW 05Dec2013
   VRHFIN =Cu: d10 p1

   TITEL  = PAW_PBE Cu_sv_GW 05Dec2013
   POMASS =   63.546; ZVAL   =   19.000    mass and valenz
   ENMAX  =  391.688; ENMIN  =  293.766 eV

 POTCAR:    PAW_PBE Al_GW 19Mar2012
   VRHFIN =Al: s2p1

   TITEL  = PAW_PBE Al_GW 19Mar2012
   POMASS =   26.982; ZVAL   =    3.000    mass and valenz
   ENMAX  =  240.300; ENMIN  =  180.225 eV

 POTCAR:    PAW_PBE O_GW 28Sep2005
   VRHFIN =O: s2p4

   TITEL  = PAW_PBE O_GW 28Sep2005
   POMASS =   16.000; ZVAL   =    6.000    mass and valenz
   ENMAX  =  414.635; ENMIN  =  310.976 eV

  PAW_PBE Cu_sv_GW 05Dec2013            :
  PAW_PBE Al_GW 19Mar2012               :
  PAW_PBE O_GW 28Sep2005                :

 POSCAR: CuAlO2 BenkoF84
  positions in direct lattice
  velocities in cartesian coordinates
 exchange correlation table for  LEXCH =       14
   RHO(1)=    0.500       N(1)  =     2000
   RHO(2)=  100.500       N(2)  =     4000

 ion  position               nearest neighbor table
   1  0.000  0.000  0.000-   3 1.85   4 1.85
   2  0.500  0.500  0.500-   3 1.90   4 1.90   3 1.90   4 1.90   4 1.90   3 1.90
   3  0.110  0.110  0.110-   1 1.85   2 1.90   2 1.90   2 1.90
   4  0.890  0.890  0.890-   1 1.85   2 1.90   2 1.90   2 1.90

  LATTYP: Found a trigonal (rhomboedric) cell.
 ALAT       =     5.8622747488
 COS(alpha) =     0.8826433487

  Lattice vectors:

 A1 = (   1.4200545446,   0.8198688751,   5.6282790774)
 A2 = (  -1.4200545446,   0.8198688751,   5.6282790774)
 A3 = (   0.0000000000,  -1.6397377403,   5.6282790774)

Analysis of symmetry for initial positions (statically):
 Subroutine PRICEL returns:
 Original cell was already a primitive cell.

 Routine SETGRP: Setting up the symmetry group for a
 trigonal (rhombohedral) supercell.

 Subroutine GETGRP returns: Found 12 space group operations
 (whereof 12 operations were pure point group operations)
 out of a pool of 12 trial point group operations.

The static configuration has the point symmetry D_3d.

Analysis of symmetry for dynamics (positions and initial velocities):
 Subroutine PRICEL returns:
 Original cell was already a primitive cell.

 Routine SETGRP: Setting up the symmetry group for a
 trigonal (rhombohedral) supercell.

 Subroutine GETGRP returns: Found 12 space group operations
 (whereof 12 operations were pure point group operations)
 out of a pool of 12 trial point group operations.

The dynamic configuration has the point symmetry D_3d.

 Subroutine INISYM returns: Found 12 space group operations
 (whereof 12 operations are pure point group operations),
 and found     1 'primitive' translations

 KPOINTS: CuMO2

Automatic generation of k-mesh.
Space group operators:
 irot       det(A)        alpha          n_x          n_y          n_z        tau_x        tau_y        tau_z
    1     1.000000     0.000000     1.000000     0.000000     0.000000     0.000000     0.000000     0.000000
    2    -1.000000     0.000000     1.000000     0.000000     0.000000     0.000000     0.000000     0.000000
    3     1.000000   180.000000    -0.500000     0.866025    -0.000000     0.000000     0.000000     0.000000
    4    -1.000000   180.000000    -0.500000     0.866025    -0.000000     0.000000     0.000000     0.000000
    5     1.000000   120.000000     0.000000    -0.000000    -1.000000     0.000000     0.000000     0.000000
    6    -1.000000   120.000000     0.000000    -0.000000    -1.000000     0.000000     0.000000     0.000000
    7     1.000000   180.000000     1.000000     0.000000     0.000000     0.000000     0.000000     0.000000
    8    -1.000000   180.000000     1.000000     0.000000     0.000000     0.000000     0.000000     0.000000
    9     1.000000   120.000000     0.000000     0.000000     1.000000     0.000000     0.000000     0.000000
   10    -1.000000   120.000000     0.000000     0.000000     1.000000     0.000000     0.000000     0.000000
   11     1.000000   180.000000     0.500000     0.866025    -0.000000     0.000000     0.000000     0.000000
   12    -1.000000   180.000000     0.500000     0.866025    -0.000000     0.000000     0.000000     0.000000

 Subroutine IBZKPT returns following result:

 Found    116 irreducible k-points:

 Following reciprocal coordinates:
            Coordinates               Weight
  0.000000  0.000000  0.000000      1.000000
  0.100000  0.000000  0.000000      6.000000
  0.200000  0.000000  0.000000      6.000000
  0.300000  0.000000  0.000000      6.000000
  0.400000  0.000000  0.000000      6.000000
  0.500000  0.000000 -0.000000      3.000000
  0.100000  0.100000  0.000000      6.000000
  0.200000  0.100000  0.000000     12.000000
  0.300000  0.100000  0.000000     12.000000
  0.400000  0.100000  0.000000     12.000000
  0.500000  0.100000  0.000000     12.000000
 -0.400000  0.100000 -0.000000     12.000000
 -0.300000  0.100000  0.000000     12.000000
 -0.200000  0.100000 -0.000000     12.000000
 -0.100000  0.100000  0.000000      6.000000
  0.200000  0.200000 -0.000000      6.000000
  0.300000  0.200000  0.000000     12.000000
  0.400000  0.200000  0.000000     12.000000
  0.500000  0.200000  0.000000     12.000000
 -0.400000  0.200000  0.000000     12.000000
 -0.300000  0.200000 -0.000000     12.000000
 -0.200000  0.200000  0.000000      6.000000
  0.300000  0.300000  0.000000      6.000000
  0.400000  0.300000  0.000000     12.000000
  0.500000  0.300000 -0.000000     12.000000
 -0.400000  0.300000  0.000000     12.000000
 -0.300000  0.300000  0.000000      6.000000
  0.400000  0.400000 -0.000000      6.000000
  0.500000  0.400000  0.000000     12.000000
 -0.400000  0.400000  0.000000      6.000000
  0.500000  0.500000  0.000000      3.000000
  0.100000  0.100000  0.100000      2.000000
  0.200000  0.100000  0.100000      6.000000
  0.300000  0.100000  0.100000      6.000000
  0.400000  0.100000  0.100000      6.000000
  0.500000  0.100000  0.100000      6.000000
 -0.400000  0.100000  0.100000      6.000000
 -0.300000  0.100000  0.100000      6.000000
 -0.200000  0.100000  0.100000      6.000000
 -0.100000  0.100000  0.100000      6.000000
  0.200000  0.200000  0.100000      6.000000
  0.300000  0.200000  0.100000     12.000000
  0.400000  0.200000  0.100000     12.000000
  0.500000  0.200000  0.100000     12.000000
 -0.400000  0.200000  0.100000     12.000000
 -0.300000  0.200000  0.100000     12.000000
 -0.200000  0.200000  0.100000     12.000000
 -0.100000  0.200000  0.100000     12.000000
  0.300000  0.300000  0.100000      6.000000
  0.400000  0.300000  0.100000     12.000000
  0.500000  0.300000  0.100000     12.000000
 -0.400000  0.300000  0.100000     12.000000
 -0.300000  0.300000  0.100000     12.000000
 -0.200000  0.300000  0.100000     12.000000
 -0.100000  0.300000  0.100000     12.000000
  0.400000  0.400000  0.100000      6.000000
  0.500000  0.400000  0.100000     12.000000
 -0.400000  0.400000  0.100000     12.000000
 -0.300000  0.400000  0.100000     12.000000
 -0.200000  0.400000  0.100000     12.000000
[...]
 -0.300000  0.300000  0.300000      6.000000
  0.400000  0.400000  0.300000      6.000000
  0.500000  0.400000  0.300000     12.000000
 -0.400000  0.400000  0.300000     12.000000
 -0.300000  0.400000  0.300000     12.000000
  0.500000  0.500000  0.300000      6.000000
 -0.400000  0.500000  0.300000     12.000000
 -0.300000  0.500000  0.300000      6.000000
 -0.400000 -0.400000  0.300000      6.000000
  0.400000  0.400000  0.400000      2.000000
  0.500000  0.400000  0.400000      6.000000
 -0.400000  0.400000  0.400000      6.000000
  0.500000  0.500000  0.400000      6.000000
 -0.400000  0.500000  0.400000      6.000000
  0.500000  0.500000  0.500000      1.000000

 Following cartesian coordinates:
            Coordinates               Weight
  0.000000  0.000000  0.000000      1.000000
  0.035210  0.020328  0.005922      6.000000
  0.070420  0.040657  0.011845      6.000000
  0.105630  0.060985  0.017767      6.000000
  0.140840  0.081314  0.023690      6.000000
  0.176050  0.101642  0.029612      3.000000
  0.000000  0.040657  0.011845      6.000000
  0.035210  0.060985  0.017767     12.000000
  0.070420  0.081314  0.023690     12.000000
  0.105630  0.101642  0.029612     12.000000
  0.140840  0.121971  0.035535     12.000000
 -0.176050 -0.060985 -0.017767     12.000000
 -0.140840 -0.040657 -0.011845     12.000000
 -0.105630 -0.020328 -0.005922     12.000000
 -0.070420  0.000000  0.000000      6.000000
 -0.000000  0.081314  0.023690      6.000000
  0.035210  0.101642  0.029612     12.000000
  0.070420  0.121971  0.035535     12.000000
  0.105630  0.142299  0.041457     12.000000
 -0.211259 -0.040657 -0.011845     12.000000
 -0.176050 -0.020328 -0.005922     12.000000
 -0.140840  0.000000  0.000000      6.000000
  0.000000  0.121971  0.035535      6.000000
  0.035210  0.142299  0.041457     12.000000
  0.070420  0.162628  0.047380     12.000000
 -0.246469 -0.020328 -0.005922     12.000000
 -0.211259  0.000000  0.000000      6.000000
 -0.000000  0.162628  0.047380      6.000000
  0.035210  0.182956  0.053302     12.000000
 -0.281679  0.000000  0.000000      6.000000
  0.000000  0.203285  0.059225      3.000000
  0.000000  0.000000  0.017767      2.000000
  0.035210  0.020328  0.023690      6.000000
  0.070420  0.040657  0.029612      6.000000
  0.105630  0.060985  0.035535      6.000000
  0.140840  0.081314  0.041457      6.000000
 -0.176050 -0.101642 -0.011845      6.000000
 -0.140840 -0.081314 -0.005922      6.000000
 -0.105630 -0.060985  0.000000      6.000000
 -0.070420 -0.040657  0.005922      6.000000
 -0.000000  0.040657  0.029612      6.000000
  0.035210  0.060985  0.035535     12.000000
  0.070420  0.081314  0.041457     12.000000
  0.105630  0.101642  0.047380     12.000000
 -0.211259 -0.081314 -0.005922     12.000000
 -0.176050 -0.060985  0.000000     12.000000
 -0.140840 -0.040657  0.005922     12.000000
 -0.105630 -0.020328  0.011845     12.000000
  0.000000  0.081314  0.041457      6.000000
  0.035210  0.101642  0.047380     12.000000
  0.070420  0.121971  0.053302     12.000000
 -0.246469 -0.060985  0.000000     12.000000
 -0.211259 -0.040657  0.005922     12.000000
 -0.176050 -0.020328  0.011845     12.000000
 -0.140840  0.000000  0.017767     12.000000
  0.000000  0.121971  0.053302      6.000000
  0.035210  0.142299  0.059225     12.000000
 -0.281679 -0.040657  0.005922     12.000000
 -0.246469 -0.020328  0.011845     12.000000
 -0.211259  0.000000  0.017767     12.000000
[...]
 -0.211259 -0.121971  0.017767      6.000000
  0.000000  0.040657  0.065147      6.000000
  0.035210  0.060985  0.071070     12.000000
 -0.281679 -0.121971  0.017767     12.000000
 -0.246469 -0.101642  0.023690     12.000000
  0.000000  0.081314  0.076992      6.000000
 -0.316889 -0.101642  0.023690     12.000000
 -0.281679 -0.081314  0.029612      6.000000
 -0.000000 -0.284598 -0.029612      6.000000
  0.000000  0.000000  0.071070      2.000000
  0.035210  0.020328  0.076992      6.000000
[...]
  -0.40000000  0.40000000  0.10000000       0.012
  -0.30000000  0.40000000  0.10000000       0.012
  -0.20000000  0.40000000  0.10000000       0.012
[...]
  -0.30000000  0.30000000  0.30000000       0.006
   0.40000000  0.40000000  0.30000000       0.006
   0.50000000  0.40000000  0.30000000       0.012
  -0.40000000  0.40000000  0.30000000       0.012
  -0.30000000  0.40000000  0.30000000       0.012
   0.50000000  0.50000000  0.30000000       0.006
  -0.40000000  0.50000000  0.30000000       0.012
  -0.30000000  0.50000000  0.30000000       0.006
  -0.40000000 -0.40000000  0.30000000       0.006
   0.40000000  0.40000000  0.40000000       0.002
   0.50000000  0.40000000  0.40000000       0.006
  -0.40000000  0.40000000  0.40000000       0.006
   0.50000000  0.50000000  0.40000000       0.006
  -0.40000000  0.50000000  0.40000000       0.006
   0.50000000  0.50000000  0.50000000       0.001

 position of ions in fractional coordinates (direct lattice)
   0.00000000  0.00000000  0.00000000
   0.50000000  0.50000000  0.50000000
   0.10956395  0.10956395  0.10956395
   0.89043605  0.89043605  0.89043605

 position of ions in cartesian coordinates  (Angst):
   0.00000000  0.00000000  0.00000000
   0.00000000  0.00000000  8.44241862
   0.00000000  0.00000000  1.84996950
   0.00000000  0.00000001 15.03486773

 k-point  1 :   0.0000 0.0000 0.0000  plane waves:    1191
 k-point  2 :   0.1000 0.0000 0.0000  plane waves:    1182
 k-point  3 :   0.2000 0.0000 0.0000  plane waves:    1159
 k-point  4 :   0.3000 0.0000 0.0000  plane waves:    1150
 k-point  5 :   0.4000 0.0000 0.0000  plane waves:    1142
 k-point  6 :   0.5000 0.0000-0.0000  plane waves:    1140
 k-point  7 :   0.1000 0.1000 0.0000  plane waves:    1176
 k-point  8 :   0.2000 0.1000 0.0000  plane waves:    1159
 k-point  9 :   0.3000 0.1000 0.0000  plane waves:    1161
 k-point 10 :   0.4000 0.1000 0.0000  plane waves:    1150
 k-point 11 :   0.5000 0.1000 0.0000  plane waves:    1146
 k-point 12 :  -0.4000 0.1000-0.0000  plane waves:    1146
 k-point 13 :  -0.3000 0.1000 0.0000  plane waves:    1146
 k-point 14 :  -0.2000 0.1000-0.0000  plane waves:    1154
 k-point 15 :  -0.1000 0.1000 0.0000  plane waves:    1161
 k-point 16 :   0.2000 0.2000-0.0000  plane waves:    1152
 k-point 17 :   0.3000 0.2000 0.0000  plane waves:    1148
 k-point 18 :   0.4000 0.2000 0.0000  plane waves:    1150
 k-point 19 :   0.5000 0.2000 0.0000  plane waves:    1150
 k-point 20 :  -0.4000 0.2000 0.0000  plane waves:    1148
 k-point 21 :  -0.3000 0.2000-0.0000  plane waves:    1147
 k-point 22 :  -0.2000 0.2000 0.0000  plane waves:    1147
 k-point 23 :   0.3000 0.3000 0.0000  plane waves:    1155
 k-point 24 :   0.4000 0.3000 0.0000  plane waves:    1146
 k-point 25 :   0.5000 0.3000-0.0000  plane waves:    1149
 k-point 26 :  -0.4000 0.3000 0.0000  plane waves:    1147
 k-point 27 :  -0.3000 0.3000 0.0000  plane waves:    1152
 k-point 28 :   0.4000 0.4000-0.0000  plane waves:    1150
 k-point 29 :   0.5000 0.4000 0.0000  plane waves:    1146
 k-point 30 :  -0.4000 0.4000 0.0000  plane waves:    1154
 k-point 31 :   0.5000 0.5000 0.0000  plane waves:    1142
 k-point 32 :   0.1000 0.1000 0.1000  plane waves:    1185
 k-point 33 :   0.2000 0.1000 0.1000  plane waves:    1172
 k-point 34 :   0.3000 0.1000 0.1000  plane waves:    1167
 k-point 35 :   0.4000 0.1000 0.1000  plane waves:    1155
 k-point 36 :   0.5000 0.1000 0.1000  plane waves:    1140
 k-point 37 :  -0.4000 0.1000 0.1000  plane waves:    1138
 k-point 38 :  -0.3000 0.1000 0.1000  plane waves:    1139
 k-point 39 :  -0.2000 0.1000 0.1000  plane waves:    1141
 k-point 40 :  -0.1000 0.1000 0.1000  plane waves:    1156
 k-point 41 :   0.2000 0.2000 0.1000  plane waves:    1174
 k-point 42 :   0.3000 0.2000 0.1000  plane waves:    1161
 k-point 43 :   0.4000 0.2000 0.1000  plane waves:    1163
 k-point 44 :   0.5000 0.2000 0.1000  plane waves:    1149
 k-point 45 :  -0.4000 0.2000 0.1000  plane waves:    1145
 k-point 46 :  -0.3000 0.2000 0.1000  plane waves:    1146
 k-point 47 :  -0.2000 0.2000 0.1000  plane waves:    1144
 k-point 48 :  -0.1000 0.2000 0.1000  plane waves:    1149
 k-point 49 :   0.3000 0.3000 0.1000  plane waves:    1157
 k-point 50 :   0.4000 0.3000 0.1000  plane waves:    1154
 k-point 51 :   0.5000 0.3000 0.1000  plane waves:    1150
 k-point 52 :  -0.4000 0.3000 0.1000  plane waves:    1150
 k-point 53 :  -0.3000 0.3000 0.1000  plane waves:    1151
 k-point 54 :  -0.2000 0.3000 0.1000  plane waves:    1146
 k-point 55 :  -0.1000 0.3000 0.1000  plane waves:    1144
 k-point 56 :   0.4000 0.4000 0.1000  plane waves:    1158
 k-point 57 :   0.5000 0.4000 0.1000  plane waves:    1151
 k-point 58 :  -0.4000 0.4000 0.1000  plane waves:    1151
 k-point 59 :  -0.3000 0.4000 0.1000  plane waves:    1147
 k-point 60 :  -0.2000 0.4000 0.1000  plane waves:    1145
[...]
 k-point 85 :  -0.2000 0.3000 0.2000  plane waves:    1139
 k-point 86 :   0.4000 0.4000 0.2000  plane waves:    1157
 k-point 87 :   0.5000 0.4000 0.2000  plane waves:    1154
 k-point 88 :  -0.4000 0.4000 0.2000  plane waves:    1151
 k-point 89 :  -0.3000 0.4000 0.2000  plane waves:    1148
 k-point 90 :  -0.2000 0.4000 0.2000  plane waves:    1146
 k-point 91 :   0.5000 0.5000 0.2000  plane waves:    1162
 k-point 92 :  -0.4000 0.5000 0.2000  plane waves:    1155
 k-point 93 :  -0.3000 0.5000 0.2000  plane waves:    1153
 k-point 94 :  -0.2000 0.5000 0.2000  plane waves:    1144
 k-point 95 :  -0.4000-0.4000 0.2000  plane waves:    1141
 k-point 96 :  -0.3000-0.4000 0.2000  plane waves:    1147
 k-point 97 :  -0.3000-0.3000 0.2000  plane waves:    1144
 k-point 98 :   0.3000 0.3000 0.3000  plane waves:    1168
 k-point 99 :   0.4000 0.3000 0.3000  plane waves:    1167
 k-point ** :   0.5000 0.3000 0.3000  plane waves:    1162
 k-point ** :  -0.4000 0.3000 0.3000  plane waves:    1154
 k-point ** :  -0.3000 0.3000 0.3000  plane waves:    1145
 k-point ** :   0.4000 0.4000 0.3000  plane waves:    1166
 k-point ** :   0.5000 0.4000 0.3000  plane waves:    1158
 k-point ** :  -0.4000 0.4000 0.3000  plane waves:    1162
 k-point ** :  -0.3000 0.4000 0.3000  plane waves:    1155
 k-point ** :   0.5000 0.5000 0.3000  plane waves:    1165
 k-point ** :  -0.4000 0.5000 0.3000  plane waves:    1158
 k-point ** :  -0.3000 0.5000 0.3000  plane waves:    1148
 k-point ** :  -0.4000-0.4000 0.3000  plane waves:    1160
 k-point ** :   0.4000 0.4000 0.4000  plane waves:    1159
 k-point ** :   0.5000 0.4000 0.4000  plane waves:    1161
 k-point ** :  -0.4000 0.4000 0.4000  plane waves:    1158
 k-point ** :   0.5000 0.5000 0.4000  plane waves:    1160
 k-point ** :  -0.4000 0.5000 0.4000  plane waves:    1158
 k-point ** :   0.5000 0.5000 0.5000  plane waves:    1156

 maximum and minimum number of plane-waves per node :       206      175

 maximum number of plane-waves:      1191
 maximum index in each direction:
   IXMAX=   11   IYMAX=   11   IZMAX=   11
   IXMIN=  -11   IYMIN=  -11   IZMIN=  -11

 parallel 3D FFT for wavefunctions:
    minimum data exchange during FFTs selected (reduces bandwidth)
 parallel 3D FFT for charge:
    minimum data exchange during FFTs selected (reduces bandwidth)

 Broyden mixing: mesh for mixing (old mesh)
   NGX = 23   NGY = 23   NGZ = 23
  (NGX  = 96   NGY  = 96   NGZ  = 96)
  gives a total of  12167 points

 charge density for first step will be calculated from the start-wavefunctions

 Maximum index for augmentation-charges         8947 (set IRDMAX)

 initial charge from wavefunction
 First call to EWALD:  gamma=   0.521
 Maximum number of real-space cells 4x 4x 4
 Maximum number of reciprocal cells 4x 4x 4

--------------------------------------- Iteration      1(   1)  ---------------------------------------

 eigenvalue-minimisations  : 10108
 total energy-change (2. order) :-0.2741798E+02  (-0.4753408E-02)
 number of electron      34.0000002 magnetization
 augmentation part       11.5398956 magnetization

 Broyden mixing:
  rms(total) = 0.63321E-01    rms(broyden)= 0.63316E-01
  rms(prec ) = 0.10193E+00
  weight for this iteration     100.00

 Free energy of the ion-electron system (eV)
  alpha Z        PSCENC =       167.28213847
  Ewald energy   TEWEN  =     -3351.06778558
  -Hartree energ DENC   =     -2402.88279582
  -exchange      EXHF   =         0.00000000
  -V(xc)+E(xc)   XCENC  =       180.99778902
  PAW double counting   =      5404.62236688    -5729.61816757
  entropy T*S    EENTRO =        -0.00000000
  eigenvalues    EBANDS =      -590.25257798
  atomic energy  EATOM  =      6293.50105541
  Solvation  Ediel_sol  =         0.00000000
  free energy    TOTEN  =       -27.41797717 eV

  energy without entropy =      -27.41797717  energy(sigma->0) =      -27.41797717

[...]

 eigenvalue-minimisations  : 11111
 total energy-change (2. order) : 0.8448164E-03  (-0.4933952E-02)
 number of electron      34.0000002 magnetization
 augmentation part       11.6294912 magnetization

[...]

 eigenvalues of (default mixing * dielectric matrix)
  average eigenvalue GAMMA=   0.4896
  0.4896

[...]

 eigenvalue-minimisations  : 10833
 total energy-change (2. order) : 0.5764903E-05  (-0.9491373E-06)
 number of electron      34.0000002 magnetization
 augmentation part       11.5845290 magnetization

[...]

 Broyden mixing:
  rms(total) = 0.56418E-04    rms(broyden)= 0.56304E-04
  rms(prec ) = 0.79694E-04
  weight for this iteration     100.00

 eigenvalues of (default mixing * dielectric matrix)
  average eigenvalue GAMMA=   1.3111
  2.6687  0.4486  1.5828  0.8976  1.3213  1.3213  1.1242  1.1242

[...]

--------------------------------------- Iteration      1(  10)  ---------------------------------------

 eigenvalue-minimisations  :  9472
 total energy-change (2. order) :-0.8146344E-07  (-0.4100186E-07)
 number of electron      34.0000002 magnetization
 augmentation part       11.5843437 magnetization

 Free energy of the ion-electron system (eV)
  alpha Z        PSCENC =       167.28213847
  Ewald energy   TEWEN  =     -3351.06778558
  -Hartree energ DENC   =     -2400.81918432
  -exchange      EXHF   =         0.00000000
  -V(xc)+E(xc)   XCENC  =       180.92806367
  PAW double counting   =      5402.03852881    -5725.87099306
  entropy T*S    EENTRO =        -0.00000000
  eigenvalues    EBANDS =      -593.40313457
  atomic energy  EATOM  =      6293.50105541
  Solvation  Ediel_sol  =         0.00000000
  free energy    TOTEN  =       -27.41131117 eV

  energy without entropy =      -27.41131117  energy(sigma->0) =      -27.41131117

 average (electrostatic) potential at core
  the test charge radii are     0.8846  1.0406  0.7215
  (the norm of the test charge is              1.0000)
       1 -76.0600       2 -50.7235       3 -69.6804       4 -69.6804

 E-fermi :   6.8552     XC(G=0): -11.9989     alpha+bet :-13.2687

 k-point     1 :       0.0000    0.0000    0.0000
  band No.  band energies     occupation
      1    -105.4668      2.00000
      2     -63.1619      2.00000
      3     -62.9508      2.00000
      4     -62.9508      2.00000
      5     -15.2682      2.00000
      6     -13.0915      2.00000
      7      -2.5938      2.00000
      8       1.8892      2.00000
      9       1.9927      2.00000
     10       1.9927      2.00000
     11       2.0487      2.00000
     12       3.1931      2.00000
     13       3.1931      2.00000
     14       4.0295      2.00000
     15       4.0295      2.00000
     16       4.8151      2.00000
     17       4.8151      2.00000
     18       7.7733      0.00000
     19      11.9065      0.00000
     20      13.1285      0.00000
     21      17.5378      0.00000
     22      19.6654      0.00000
     23      19.6647      0.00000
     24      24.6428      0.00000
     25      25.8754      0.00000
     26      25.9399      0.00000
     27      26.9541      0.00000
     28      26.9546      0.00000
     29      27.2138      0.00000
     30      30.2118      0.00000
     31      31.0432      0.00000
     32      31.0450      0.00000
     33      31.8677      0.00000
     34      22.6195      0.00000
     35      22.9738      0.00000
     36      36.6167      0.00000

[...]

 k-point   116 :       0.5000    0.5000    0.5000
  band No.  band energies     occupation
      1    -105.4667      2.00000
      2     -63.1609      2.00000
      3     -62.9502      2.00000
      4     -62.9502      2.00000
      5     -15.1623      2.00000
      6     -13.2886      2.00000
      7      -1.3037      2.00000
      8       0.0614      2.00000
      9       2.0812      2.00000
     10       2.3117      2.00000
     11       2.3117      2.00000
     12       2.6693      2.00000
     13       2.6693      2.00000
     14       4.0301      2.00000
     15       4.0301      2.00000
     16       5.0450      2.00000
     17       5.0450      2.00000
     18       9.4434      0.00000
     19      10.3884      0.00000
     20      13.0540      0.00000
     21      18.1101      0.00000
     22      19.1572      0.00000
     23      18.1788      0.00000
     24      20.9154      0.00000
     25      21.5897      0.00000
     26      13.8992      0.00000
     27      25.2917      0.00000
     28      25.2500      0.00000
     29      25.9441      0.00000
     30      26.2998      0.00000
     31      28.2737      0.00000
     32      28.2737      0.00000
     33      29.0460      0.00000
     34      29.0463      0.00000
     35      30.2121      0.00000
     36      31.5883      0.00000

 soft charge-density along one line, spin component           1
         0         1         2         3         4         5         6         7         8         9
 total charge-density along one line

------------------------ aborting loop because EDIFF is reached ----------------------------------------

  FORCE on cell =-STRESS in cart. coord.  units (eV):
  Direction    XX          YY          ZZ          XY          YZ          ZX
  Alpha Z   167.28214   167.28214   167.28214
  Ewald   -1091.24516 -1091.24515 -1168.58029    -0.00000     0.00000    -0.00000
  Hartree   902.06197   902.06197   596.70484    -0.00000     0.00000     0.00000
  E(xc)    -218.97756  -218.97756  -218.43705    -0.00000     0.00000     0.00000
  Local    -384.60428  -384.60428    18.31300    -0.00000    -0.00000     0.00000
  n-local  -197.93135  -197.51617  -200.32096     0.30371     0.62617    -0.66429
  augment   206.91677   206.91677   200.76286     0.00000     0.00000    -0.00000
  Kinetic   617.35026   615.28885   604.29994    -4.41570    -0.88125    -0.13787
  Fock        0.00000     0.00000     0.00000     0.00000     0.00000     0.00000
  Total       0.02969     0.02969     0.02449     0.00000     0.00000     0.00000
  in kB       1.20997     1.20997     0.99807     0.00000     0.00000     0.00000

 VOLUME and BASIS-vectors are now :
  energy-cutoff  :      550.00
  volume of cell :       39.32
      direct lattice vectors                 reciprocal lattice vectors
     1.420054545  0.819868875  5.628279077     0.352099151  0.203284540  0.059224734
    -1.420054545  0.819868875  5.628279077    -0.352099151  0.203284540  0.059224734
     0.000000000 -1.639737740  5.628279077    -0.000000000 -0.406569080  0.059224735

  length of vectors
     5.862274751  5.862274751  5.862274749     0.410860056  0.410860056  0.410860057

 FORCES acting on ions
    electron-ion (+dipol)            ewald-force                    non-local-force                 convergence-correction
   0.775E-14 0.822E-13 -.150E-12   0.841E-14 -.179E-13 -.114E-12   -.628E-22 0.564E-21 -.291E-20   0.113E-12 0.184E-12 0.232E-13
   -.448E-12 -.537E-12 -.559E-12   0.304E-14 -.372E-14 0.426E-13   0.920E-24 0.377E-24 0.437E-23   -.113E-15 -.386E-15 -.139E-13
   0.180E-10 -.139E-06 -.348E+03   -.456E-13 0.430E-07 0.344E+03   0.584E-16 0.260E-08 0.444E+01   0.205E-13 0.174E-12 0.243E-03
   -.140E-10 0.139E-06 0.348E+03   0.391E-13 -.430E-07 -.344E+03   -.683E-16 -.260E-08 -.444E+01   0.325E-14 -.124E-12 -.243E-03
   0.358E-11 0.127E-10 -.216E-11   0.489E-14 -.210E-13 0.568E-13   -.990E-17 0.471E-16 0.178E-14   0.137E-12 0.233E-12 -.223E-13

 POSITION                                       TOTAL-FORCE (eV/Angst)
      0.00000      0.00000      0.00000        -0.000000      0.000000     -0.000000
      0.00000      0.00000      8.44242        -0.000000      0.000000     -0.000000
      0.00000      0.00000      1.84997        -0.000000     -0.000000     -0.000139
      0.00000      0.00000     15.03487         0.000000      0.000000      0.000139
    total drift:                                0.000000      0.000000     -0.000000

  FREE ENERGIE OF THE ION-ELECTRON SYSTEM (eV)
  free  energy   TOTEN  =       -27.41131117 eV

  energy  without entropy=      -27.41131117  energy(sigma->0) =      -27.41131117

 writing wavefunctions