 vasp.5.4.4.18Apr17-6-g9f103f2a35 (build Dec 13 2019 19:06:22) complex

 executed on             LinuxIFC date 2021.07.02  07:35:00

 INCAR:
 POTCAR:    PAW_PBE Cu_sv_GW 05Dec2013
 POTCAR:    PAW_PBE Al_GW 19Mar2012
 POTCAR:    PAW_PBE O_GW 28Sep2005
 POTCAR:    PAW_PBE Cu_sv_GW 05Dec2013
   VRHFIN =Cu: d10 p1

   TITEL  = PAW_PBE Cu_sv_GW 05Dec2013
   POMASS =   63.546; ZVAL   =   19.000    mass and valenz
   ENMAX  =  391.688; ENMIN  =  293.766 eV

 POTCAR:    PAW_PBE Al_GW 19Mar2012
   VRHFIN =Al: s2p1

   TITEL  = PAW_PBE Al_GW 19Mar2012
   POMASS =   26.982; ZVAL   =    3.000    mass and valenz
   ENMAX  =  240.300; ENMIN  =  180.225 eV

 POTCAR:    PAW_PBE O_GW 28Sep2005
   VRHFIN =O: s2p4

   TITEL  = PAW_PBE O_GW 28Sep2005
   POMASS =   16.000; ZVAL   =    6.000    mass and valenz
   ENMAX  =  414.635; ENMIN  =  310.976 eV

  PAW_PBE Cu_sv_GW 05Dec2013            :
  PAW_PBE Al_GW 19Mar2012               :
  PAW_PBE O_GW 28Sep2005                :

 POSCAR: CuAlO2 BenkoF84
  positions in direct lattice
 exchange correlation table for  LEXCH =       14
   RHO(1)=    0.500       N(1)  =     2000
   RHO(2)=  100.500       N(2)  =     4000

 ion  position               nearest neighbor table
   1  0.000  0.000  0.000-   3 1.86   4 1.86
   2  0.500  0.500  0.500-   3 1.91   4 1.91   3 1.91   3 1.91   4 1.91   4 1.91
   3  0.110  0.110  0.110-   1 1.86   2 1.91   2 1.91   2 1.91
   4  0.890  0.890  0.890-   1 1.86   2 1.91   2 1.91   2 1.91

  LATTYP: Found a trigonal (rhomboedric) cell.
 ALAT       =     5.8870541721
 COS(alpha) =     0.8819730727

  Lattice vectors:

 A1 = (   1.4301236400,   0.8256822700,   5.6506992500)
 A2 = (  -1.4301236400,   0.8256822700,   5.6506992500)
 A3 = (   0.0000000000,  -1.6513645300,   5.6506992500)

Analysis of symmetry for initial positions (statically):
 Subroutine PRICEL returns:
 Original cell was already a primitive cell.

 Routine SETGRP: Setting up the symmetry group for a
 trigonal (rhombohedral) supercell.

 Subroutine GETGRP returns: Found 12 space group operations
 (whereof 12 operations were pure point group operations)
 out of a pool of 12 trial point group operations.

The static configuration has the point symmetry D_3d.

Analysis of symmetry for dynamics (positions and initial velocities):
 Subroutine PRICEL returns:
 Original cell was already a primitive cell.

 Routine SETGRP: Setting up the symmetry group for a
 trigonal (rhombohedral) supercell.

 Subroutine GETGRP returns: Found 12 space group operations
 (whereof 12 operations were pure point group operations)
 out of a pool of 12 trial point group operations.

The dynamic configuration has the point symmetry D_3d.

 Subroutine INISYM returns: Found 12 space group operations
 (whereof 12 operations are pure point group operations),
 and found     1 'primitive' translations

 KPOINTS: CuMO2

Automatic generation of k-mesh.
Space group operators:
 irot       det(A)        alpha          n_x          n_y          n_z        tau_x        tau_y        tau_z
    1     1.000000     0.000000     1.000000     0.000000     0.000000     0.000000     0.000000     0.000000
    2    -1.000000     0.000000     1.000000     0.000000     0.000000     0.000000     0.000000     0.000000
    3     1.000000   180.000000    -0.500000     0.866025    -0.000000     0.000000     0.000000     0.000000
    4    -1.000000   180.000000    -0.500000     0.866025    -0.000000     0.000000     0.000000     0.000000
    5     1.000000   120.000000     0.000000    -0.000000    -1.000000     0.000000     0.000000     0.000000
    6    -1.000000   120.000000     0.000000    -0.000000    -1.000000     0.000000     0.000000     0.000000
    7     1.000000   180.000000     1.000000     0.000000     0.000000     0.000000     0.000000     0.000000
    8    -1.000000   180.000000     1.000000     0.000000     0.000000     0.000000     0.000000     0.000000
    9     1.000000   120.000000     0.000000     0.000000     1.000000     0.000000     0.000000     0.000000
   10    -1.000000   120.000000     0.000000     0.000000     1.000000     0.000000     0.000000     0.000000
   11     1.000000   180.000000     0.500000     0.866025    -0.000000     0.000000     0.000000     0.000000
   12    -1.000000   180.000000     0.500000     0.866025    -0.000000     0.000000     0.000000     0.000000

 Subroutine IBZKPT returns following result:

 Found    116 irreducible k-points:

 Following reciprocal coordinates:
            Coordinates               Weight
  0.000000  0.000000  0.000000      1.000000
  0.100000 -0.000000  0.000000      6.000000
  0.200000  0.000000 -0.000000      6.000000
  0.300000  0.000000  0.000000      6.000000
  0.400000  0.000000 -0.000000      6.000000
  0.500000  0.000000  0.000000      3.000000
  0.100000  0.100000  0.000000      6.000000
  0.200000  0.100000  0.000000     12.000000
  0.300000  0.100000  0.000000     12.000000
  0.400000  0.100000  0.000000     12.000000
  0.500000  0.100000  0.000000     12.000000
 -0.400000  0.100000 -0.000000     12.000000
 -0.300000  0.100000  0.000000     12.000000
 -0.200000  0.100000  0.000000     12.000000
 -0.100000  0.100000  0.000000      6.000000
  0.200000  0.200000  0.000000      6.000000
  0.300000  0.200000  0.000000     12.000000
  0.400000  0.200000  0.000000     12.000000
  0.500000  0.200000  0.000000     12.000000
 -0.400000  0.200000 -0.000000     12.000000
 -0.300000  0.200000 -0.000000     12.000000
 -0.200000  0.200000 -0.000000      6.000000
  0.300000  0.300000  0.000000      6.000000
  0.400000  0.300000  0.000000     12.000000
  0.500000  0.300000  0.000000     12.000000
 -0.400000  0.300000 -0.000000     12.000000
 -0.300000  0.300000 -0.000000      6.000000
  0.400000  0.400000  0.000000      6.000000
  0.500000  0.400000  0.000000     12.000000
 -0.400000  0.400000 -0.000000      6.000000
  0.500000  0.500000  0.000000      3.000000
  0.100000  0.100000  0.100000      2.000000
  0.200000  0.100000  0.100000      6.000000
  0.300000  0.100000  0.100000      6.000000
  0.400000  0.100000  0.100000      6.000000
  0.500000  0.100000  0.100000      6.000000
 -0.400000  0.100000  0.100000      6.000000
 -0.300000  0.100000  0.100000      6.000000
 -0.200000  0.100000  0.100000      6.000000
 -0.100000  0.100000  0.100000      6.000000
  0.200000  0.200000  0.100000      6.000000
  0.300000  0.200000  0.100000     12.000000
  0.400000  0.200000  0.100000     12.000000
  0.500000  0.200000  0.100000     12.000000
 -0.400000  0.200000  0.100000     12.000000
 -0.300000  0.200000  0.100000     12.000000
 -0.200000  0.200000  0.100000     12.000000
 -0.100000  0.200000  0.100000     12.000000
  0.300000  0.300000  0.100000      6.000000
  0.400000  0.300000  0.100000     12.000000
  0.500000  0.300000  0.100000     12.000000
 -0.400000  0.300000  0.100000     12.000000
 -0.300000  0.300000  0.100000     12.000000
 -0.200000  0.300000  0.100000     12.000000
 -0.100000  0.300000  0.100000     12.000000
  0.400000  0.400000  0.100000      6.000000
  0.500000  0.400000  0.100000     12.000000
 -0.400000  0.400000  0.100000     12.000000
 -0.300000  0.400000  0.100000     12.000000
 -0.200000  0.400000  0.100000     12.000000
[...]
 -0.300000  0.300000  0.300000      6.000000
  0.400000  0.400000  0.300000      6.000000
  0.500000  0.400000  0.300000     12.000000
 -0.400000  0.400000  0.300000     12.000000
 -0.300000  0.400000  0.300000     12.000000
  0.500000  0.500000  0.300000      6.000000
 -0.400000  0.500000  0.300000     12.000000
 -0.300000  0.500000  0.300000      6.000000
 -0.400000 -0.400000  0.300000      6.000000
  0.400000  0.400000  0.400000      2.000000
  0.500000  0.400000  0.400000      6.000000
 -0.400000  0.400000  0.400000      6.000000
  0.500000  0.500000  0.400000      6.000000
 -0.400000  0.500000  0.400000      6.000000
  0.500000  0.500000  0.500000      1.000000

 Following cartesian coordinates:
            Coordinates               Weight
  0.000000  0.000000  0.000000      1.000000
  0.034962  0.020185  0.005899      6.000000
  0.069924  0.040371  0.011798      6.000000
  0.104886  0.060556  0.017697      6.000000
  0.139848  0.080741  0.023596      6.000000
  0.174810  0.100927  0.029495      3.000000
 -0.000000  0.040371  0.011798      6.000000
  0.034962  0.060556  0.017697     12.000000
  0.069924  0.080741  0.023596     12.000000
  0.104886  0.100927  0.029495     12.000000
  0.139848  0.121112  0.035394     12.000000
 -0.174810 -0.060556 -0.017697     12.000000
 -0.139848 -0.040371 -0.011798     12.000000
 -0.104886 -0.020185 -0.005899     12.000000
 -0.069924 -0.000000  0.000000      6.000000
  0.000000  0.080741  0.023596      6.000000
  0.034962  0.100927  0.029495     12.000000
  0.069924  0.121112  0.035394     12.000000
  0.104886  0.141297  0.041293     12.000000
 -0.209772 -0.040371 -0.011798     12.000000
 -0.174810 -0.020185 -0.005899     12.000000
 -0.139848  0.000000  0.000000      6.000000
  0.000000  0.121112  0.035394      6.000000
  0.034962  0.141297  0.041293     12.000000
  0.069924  0.161483  0.047192     12.000000
 -0.244734 -0.020185 -0.005899     12.000000
 -0.209772  0.000000  0.000000      6.000000
  0.000000  0.161483  0.047192      6.000000
  0.034962  0.181668  0.053091     12.000000
 -0.279696  0.000000  0.000000      6.000000
  0.000000  0.201853  0.058990      3.000000
 -0.000000  0.000000  0.017697      2.000000
  0.034962  0.020185  0.023596      6.000000
  0.069924  0.040371  0.029495      6.000000
  0.104886  0.060556  0.035394      6.000000
  0.139848  0.080741  0.041293      6.000000
 -0.174810 -0.100927 -0.011798      6.000000
 -0.139848 -0.080741 -0.005899      6.000000
 -0.104886 -0.060556  0.000000      6.000000
 -0.069924 -0.040371  0.005899      6.000000
  0.000000  0.040371  0.029495      6.000000
  0.034962  0.060556  0.035394     12.000000
  0.069924  0.080741  0.041293     12.000000
  0.104886  0.100927  0.047192     12.000000
 -0.209772 -0.080741 -0.005899     12.000000
 -0.174810 -0.060556  0.000000     12.000000
 -0.139848 -0.040371  0.005899     12.000000
 -0.104886 -0.020185  0.011798     12.000000
  0.000000  0.080741  0.041293      6.000000
  0.034962  0.100927  0.047192     12.000000
  0.069924  0.121112  0.053091     12.000000
 -0.244734 -0.060556  0.000000     12.000000
 -0.209772 -0.040371  0.005899     12.000000
 -0.174810 -0.020185  0.011798     12.000000
 -0.139848 -0.000000  0.017697     12.000000
  0.000000  0.121112  0.053091      6.000000
  0.034962  0.141297  0.058990     12.000000
 -0.279696 -0.040371  0.005899     12.000000
 -0.244734 -0.020185  0.011798     12.000000
 -0.209772 -0.000000  0.017697     12.000000
[...]
 -0.209772 -0.121112  0.017697      6.000000
  0.000000  0.040371  0.064889      6.000000
  0.034962  0.060556  0.070788     12.000000
 -0.279696 -0.121112  0.017697     12.000000
 -0.244734 -0.100927  0.023596     12.000000
  0.000000  0.080741  0.076687      6.000000
 -0.314658 -0.100927  0.023596     12.000000
 -0.279696 -0.080741  0.029495      6.000000
  0.000000 -0.282595 -0.029495      6.000000
  0.000000  0.000000  0.070788      2.000000
  0.034962  0.020185  0.076687      6.000000
[...]

 Broyden mixing: mesh for mixing (old mesh)
   NGX = 23   NGY = 23   NGZ = 23
  (NGX  = 96   NGY  = 96   NGZ  = 96)
  gives a total of  12167 points

 initial charge density was supplied:
 charge density of overlapping atoms calculated
 number of electron      34.0000000 magnetization
 keeping initial charge density in first step

 Maximum index for augmentation-charges         8757 (set IRDMAX)

 First call to EWALD:  gamma=   0.518
 Maximum number of real-space cells 4x 4x 4
 Maximum number of reciprocal cells 4x 4x 4

--------------------------------------- Iteration      1(   1)  ---------------------------------------

 eigenvalue-minimisations  : 13816
 total energy-change (2. order) : 0.4157176E+03  (-0.1668279E+04)
 number of electron      34.0000000 magnetization
 augmentation part       34.0000000 magnetization

 Free energy of the ion-electron system (eV)
  alpha Z        PSCENC =       164.28044973
  Ewald energy   TEWEN  =     -3333.64587894
  -Hartree energ DENC   =     -2435.67721130
  -exchange      EXHF   =         0.00000000
  -V(xc)+E(xc)   XCENC  =       179.84347543
  PAW double counting   =      5069.77841691    -5389.95852422
  entropy T*S    EENTRO =        -0.03061897
  eigenvalues    EBANDS =      -132.37353177
  atomic energy  EATOM  =      6293.50105541
  Solvation  Ediel_sol  =         0.00000000
  free energy    TOTEN  =       415.71763230 eV

  energy without entropy =      415.74825127  energy(sigma->0) =      415.73294178

[...]

 eigenvalue-minimisations  : 13152
 total energy-change (2. order) :-0.4131694E+03  (-0.3764521E+03)
 number of electron      34.0000000 magnetization
 augmentation part       34.0000000 magnetization

[...]

 Broyden mixing:
  rms(total) = 0.14177E+01    rms(broyden)= 0.14171E+01
  rms(prec ) = 0.26216E+01
  weight for this iteration     100.00

[...]

 eigenvalues of (default mixing * dielectric matrix)
  average eigenvalue GAMMA=   0.5633
  0.5633

[...]

 average (electrostatic) potential at core
  the test charge radii are     0.8846  1.0406  0.7215
  (the norm of the test charge is              1.0000)
       1 -76.2224       2 -50.9509       3 -69.8361       4 -69.8361

 E-fermi :   6.5244     XC(G=0): -11.8993     alpha+bet :-13.0306

 k-point     1 :       0.0000    0.0000    0.0000
  band No.  band energies     occupation
      1    -105.6278      2.00000
      2     -63.3192      2.00000
      3     -63.1144      2.00000
      4     -63.1144      2.00000
      5     -15.3173      2.00000
      6     -13.1788      2.00000
      7      -2.6415      2.00000
      8       1.7776      2.00000
      9       1.8429      2.00000
     10       1.8429      2.00000
     11       1.9237      2.00000
     12       3.0192      2.00000
     13       3.0192      2.00000
     14       3.8714      2.00000
     15       3.8714      2.00000
     16       4.6310      2.00000
     17       4.6310      2.00000
     18       7.4893      0.00000
     19      11.6127      0.00000
     20      12.7707      0.00000
     21      17.2576      0.00000
     22      19.2708      0.00000
     23      19.2715      0.00000
     24      18.8996      0.00000
     25      19.6979      0.00000
     26      23.3364      0.00000
     27      25.2798      0.00000
     28      26.3294      0.00000
     29      27.4732      0.00000
     30      29.7963      0.00000
     31      30.7122      0.00000
     32      29.7214      0.00000
     33      31.2603      0.00000
     34      34.9271      0.00000
     35      35.6736      0.00000
     36      35.4695      0.00000

[...]

 soft charge-density along one line, spin component           1
         0         1         2         3         4         5         6         7         8         9
 total charge-density along one line

------------------------ aborting loop because EDIFF is reached ----------------------------------------

  FORCE on cell =-STRESS in cart. coord.  units (eV):
  Direction    XX          YY          ZZ          XY          YZ          ZX
  Alpha Z   164.28045   164.28045   164.28045
  Ewald   -1089.39151 -1089.39151 -1154.86559     0.00000     0.00000     0.00000
  Hartree   900.05550   900.05550   610.37606    -0.00000     0.00000     0.00000
  E(xc)    -218.78204  -218.78204  -218.25130     0.00000     0.00000     0.00000
  Local    -381.12198  -381.12198    -6.23939    -0.00000    -0.00000     0.00000
  n-local  -198.17690  -197.74964  -200.60906     0.31940     0.62432    -0.65588
  augment   206.82348   206.82348   200.79183     0.00000     0.00000     0.00000
  Kinetic   616.41231   614.33218   603.61484    -4.44415    -0.88847    -0.11941
  Fock        0.00000     0.00000     0.00000     0.00000     0.00000     0.00000
  Total      -0.72712    -0.72712    -0.90217     0.00000    -0.00000     0.00000
  in kB     -29.09898   -29.09898   -36.10418     0.00000    -0.00000     0.00000

 VOLUME and BASIS-vectors are now :
  energy-cutoff  :      550.00
  volume of cell :       40.04
      direct lattice vectors                 reciprocal lattice vectors
     1.430123640  0.825682270  5.650699250     0.349620121  0.201853271  0.058989749
    -1.430123640  0.825682270  5.650699250    -0.349620121  0.201853271  0.058989749
     0.000000000 -1.651364530  5.650699250    -0.000000000 -0.403706543  0.058989750

[...]

 FORCES acting on ions
    electron-ion (+dipol)            ewald-force                    non-local-force                 convergence-correction
   0.218E-13 0.891E-13 -.975E-13   0.542E-14 0.918E-14 0.114E-12   0.486E-21 0.293E-21 -.579E-20   0.142E-12 0.217E-12 -.443E-12
   -.456E-12 -.535E-12 -.556E-12   0.761E-14 -.946E-16 0.568E-13   -.135E-22 0.945E-23 0.147E-22   -.161E-15 -.650E-15 0.147E-13
   0.124E-10 -.139E-06 -.341E+03   -.208E-13 0.425E-07 0.337E+03   -.820E-17 0.250E-08 0.423E+01   -.987E-13 0.776E-13 0.353E-03
   -.556E-11 0.139E-06 0.341E+03   0.140E-13 -.425E-07 -.337E+03   -.115E-16 -.250E-08 -.423E+01   0.140E-12 -.375E-13 -.353E-03
   0.636E-11 0.486E-11 -.836E-11   0.618E-14 0.762E-14 0.568E-13   -.198E-16 0.111E-17 0.000E+00   0.184E-12 0.256E-12 -.348E-12

 POSITION                                       TOTAL-FORCE (eV/Angst)
      0.00000      0.00000      0.00000         0.000000      0.000000     -0.000000
      0.00000      0.00000      8.47605         0.000000      0.000000     -0.000000
     -0.00000      0.00000      1.86117         0.000000     -0.000000     -0.044815
     -0.00000      0.00000     15.09093        -0.000000      0.000000      0.044815
    total drift:                                0.000000      0.000000     -0.000000

  FREE ENERGIE OF THE ION-ELECTRON SYSTEM (eV)
  free  energy   TOTEN  =       -27.40999181 eV

  energy  without entropy=      -27.40999181  energy(sigma->0) =      -27.40999181

 Quasi-Newton relaxation of ions (Broydens 2nd method)
  g(Force)  = 0.194E-03   g(Stress)= 0.226E-01

 Reset! Starting new Quasi-Newton update for ions

[...]

WARNING in EDDRMM: call to ZHEGV failed, returncode =   8  4      7

[...]

 d Force = 0.1869855E-03[ 0.182E-03, 0.192E-03]  d Energy = 0.2643630E-02-0.246E-02
 d Force =-0.1461360E+01[-0.148E+01,-0.144E+01]  d Ewald  = 0.3049548E+02-0.320E+02

[...]

 retain information from N=  1 steps
 eigenvalues of (default step * inverse Hessian matrix)
  average eigenvalue of G=   0.4537
 eigenvalue spectrum of G is  0.4537

[...]

 d Force = 0.5375165E-04[ 0.275E-04, 0.800E-04]  d Energy = 0.4494897E-02-0.444E-02
 d Force =-0.6476736E+00[-0.645E+00,-0.650E+00]  d Ewald  =-0.1224292E+02 0.116E+02

[...]

 d Force = 0.1074399E-04[ 0.147E-05, 0.200E-04]  d Energy = 0.1751746E-04-0.677E-05
 d Force =-0.4701885E+00[-0.471E+00,-0.470E+00]  d Ewald  = 0.4816804E+00-0.952E+00

[...]

 d Force = 0.3820929E-07[ 0.364E-07, 0.400E-07]  d Energy = 0.3535192E-04-0.353E-04
 d Force =-0.1280140E-01[-0.128E-01,-0.128E-01]  d Ewald  =-0.9493272E+00 0.937E+00

[...]

 d Force =-0.1210410E-06[-0.335E-06, 0.927E-07]  d Energy = 0.2802419E-05-0.292E-05
 d Force =-0.3261902E-01[-0.326E-01,-0.326E-01]  d Ewald  =-0.3160704E+00 0.283E+00

[...]

 d Force = 0.1128010E-06[-0.240E-06, 0.465E-06]  d Energy = 0.6561550E-07 0.472E-07
 d Force = 0.4530946E-01[ 0.453E-01, 0.453E-01]  d Ewald  = 0.4410436E-01 0.121E-02

[...]

 d Force =-0.1943755E-05[-0.334E-05,-0.550E-06]  d Energy =-0.4082444E-05 0.214E-05
 d Force = 0.1039639E+00[ 0.104E+00, 0.104E+00]  d Ewald  = 0.3743255E+00-0.270E+00

[...]

 d Force = 0.1821213E-05[-0.252E-06, 0.389E-05]  d Energy = 0.3716268E-05-0.190E-05
 d Force =-0.1213205E+00[-0.121E+00,-0.121E+00]  d Ewald  =-0.3352849E+00 0.214E+00

[...]

 d Force =-0.2895852E-06[-0.691E-06, 0.112E-06]  d Energy =-0.1995577E-06-0.900E-07
 d Force = 0.5376757E-01[ 0.538E-01, 0.538E-01]  d Ewald  = 0.3672301E-01 0.170E-01

[...]

 d Force =-0.3509406E-06[-0.367E-06,-0.335E-06]  d Energy =-0.2954703E-06-0.555E-07
 d Force = 0.2606342E-01[ 0.261E-01, 0.261E-01]  d Ewald  = 0.3721033E-01-0.111E-01

[...]

 d Force =-0.9704397E-07[-0.272E-05, 0.253E-05]  d Energy = 0.4536605E-06-0.551E-06
 d Force =-0.1794645E+00[-0.180E+00,-0.179E+00]  d Ewald  =-0.3042431E+00 0.125E+00

[...]

 d Force = 0.4399132E-06[-0.116E-05, 0.204E-05]  d Energy = 0.3387950E-06 0.101E-06
 d Force = 0.1348040E+00[ 0.135E+00, 0.135E+00]  d Ewald  = 0.2054198E+00-0.706E-01

[...]

 eigenvalues of (default mixing * dielectric matrix)
  average eigenvalue GAMMA=   1.3163
  0.4643  1.2222  2.2626

[...]

 d Force = 0.1352335E-06[-0.660E-07, 0.336E-06]  d Energy = 0.3144714E-06-0.179E-06
 d Force =-0.3900763E-01[-0.390E-01,-0.390E-01]  d Ewald  =-0.8637989E-01 0.474E-01

[...]

 eigenvalue-minimisations  :  8812
 total energy-change (2. order) :-0.2420820E-06  (-0.4189577E-06)
 number of electron      34.0000002 magnetization
 augmentation part       11.5843431 magnetization

[...]

 d Force =-0.1265308E-07[-0.341E-07, 0.879E-08]  d Energy = 0.9818996E-07-0.111E-06
 d Force = 0.5193666E-02[ 0.519E-02, 0.519E-02]  d Ewald  =-0.1005267E-01 0.152E-01

[...]

 eigenvalue-minimisations  : 11592
 total energy-change (2. order) : 0.1256376E-06  (-0.2502182E-06)
 number of electron      34.0000002 magnetization
 augmentation part       11.5841444 magnetization

 Broyden mixing:
  rms(total) = 0.51239E-04    rms(broyden)= 0.51200E-04
  rms(prec ) = 0.76160E-04
  weight for this iteration     100.00

[...]

--------------------------------------- Iteration     16(   2)  ---------------------------------------

 eigenvalue-minimisations  :  5709
 total energy-change (2. order) :-0.9754331E-08  ( 0.7793622E-09)
 number of electron      34.0000002 magnetization
 augmentation part       11.5841444 magnetization

 Free energy of the ion-electron system (eV)
  alpha Z        PSCENC =       167.28213847
  Ewald energy   TEWEN  =     -3351.06778558
  -Hartree energ DENC   =     -2400.87113340
  -exchange      EXHF   =         0.00000000
  -V(xc)+E(xc)   XCENC  =       180.93043542
  PAW double counting   =      5401.46387814    -5725.24692752
  entropy T*S    EENTRO =        -0.00000000
  eigenvalues    EBANDS =      -593.40884734
  atomic energy  EATOM  =      6293.50105541
  Solvation  Ediel_sol  =         0.00000000
  free energy    TOTEN  =       -27.41718640 eV

  energy without entropy =      -27.41718640  energy(sigma->0) =      -27.41718640

 average (electrostatic) potential at core
  the test charge radii are     0.8846  1.0406  0.7215
  (the norm of the test charge is              1.0000)
       1 -76.0600       2 -50.7235       3 -69.6803       4 -69.6803

 E-fermi :   6.9474     XC(G=0): -11.9989     alpha+bet :-13.2687

[...]

 k-point   116 :       0.5000    0.5000    0.5000
  band No.  band energies     occupation
      1    -105.4673      2.00000
      2     -63.1611      2.00000
      3     -62.9510      2.00000
      4     -62.9510      2.00000
      5     -15.1626      2.00000
      6     -13.2888      2.00000
      7      -1.3038      2.00000
      8       0.0613      2.00000
      9       2.0810      2.00000
     10       2.3116      2.00000
     11       2.3116      2.00000
     12       2.6692      2.00000
     13       2.6692      2.00000
     14       4.0296      2.00000
     15       4.0296      2.00000
     16       5.0448      2.00000
     17       5.0448      2.00000
     18       9.4432      0.00000
     19      10.3882      0.00000
     20      13.0539      0.00000
     21      18.1099      0.00000
     22      19.7109      0.00000
     23      19.7109      0.00000
     24      20.9154      0.00000
     25      20.9154      0.00000
     26      21.5897      0.00000
     27      25.2867      0.00000
     28      25.2550      0.00000
     29      25.9319      0.00000
     30      26.2771      0.00000
     31      28.2712      0.00000
     32      28.2654      0.00000
     33      29.0454      0.00000
     34      28.9813      0.00000
     35      30.1870      0.00000
     36      31.5856      0.00000

 soft charge-density along one line, spin component           1
         0         1         2         3         4         5         6         7         8         9
 total charge-density along one line

------------------------ aborting loop because EDIFF is reached ----------------------------------------

  FORCE on cell =-STRESS in cart. coord.  units (eV):
  Direction    XX          YY          ZZ          XY          YZ          ZX
  Alpha Z   167.28214   167.28214   167.28214
  Ewald   -1091.24516 -1091.24515 -1168.58029    -0.00000     0.00000    -0.00000
  Hartree   902.07575   902.07575   596.71652    -0.00000     0.00000     0.00000
  E(xc)    -218.98042  -218.98042  -218.44002    -0.00000     0.00000     0.00000
  Local    -384.61355  -384.61355    18.31230     0.00000    -0.00000     0.00000
  n-local  -198.00868  -197.59345  -200.39526     0.30417     0.62608    -0.66444
  augment   206.90862   206.90862   200.75283    -0.00000     0.00000    -0.00000
  Kinetic   617.39712   615.33615   604.34325    -4.41646    -0.88132    -0.13777
  Fock        0.00000     0.00000     0.00000     0.00000     0.00000     0.00000
  Total      -0.00705    -0.00705    -0.00854     0.00000    -0.00000    -0.00000
  in kB      -0.28716    -0.28716    -0.34783     0.00000    -0.00000    -0.00000

 VOLUME and BASIS-vectors are now :
  energy-cutoff  :      550.00
  volume of cell :       39.32
      direct lattice vectors                 reciprocal lattice vectors
     1.420054545  0.819868875  5.628279077     0.352099151  0.203284540  0.059224734
    -1.420054545  0.819868875  5.628279077    -0.352099151  0.203284540  0.059224734
    -0.000000000 -1.639737740  5.628279077    -0.000000000 -0.406569080  0.059224735

  length of vectors
     5.862274751  5.862274751  5.862274749     0.410860056  0.410860056  0.410860057

 FORCES acting on ions
    electron-ion (+dipol)            ewald-force                    non-local-force                 convergence-correction
   0.435E-13 0.102E-12 -.801E-13   0.311E-14 -.183E-13 -.455E-12   0.232E-21 -.241E-21 -.167E-21   -.744E-11 -.991E-12 -.735E-11
   -.447E-12 -.537E-12 -.566E-12   0.157E-14 -.576E-14 0.995E-13   -.104E-22 0.874E-23 0.205E-22   0.748E-14 -.113E-13 0.111E-11
   0.346E-10 -.139E-06 -.348E+03   -.258E-14 0.430E-07 0.344E+03   0.451E-16 0.260E-08 0.444E+01   0.107E-11 -.653E-12 0.345E-03
   -.207E-10 0.139E-06 0.348E+03   0.279E-14 -.430E-07 -.344E+03   -.460E-16 -.260E-08 -.444E+01   -.649E-12 0.216E-11 -.345E-03
   0.135E-10 -.373E-11 0.148E-11   0.489E-14 -.210E-13 0.000E+00   -.874E-18 0.343E-17 0.888E-15   -.700E-11 0.503E-12 -.478E-11

 POSITION                                       TOTAL-FORCE (eV/Angst)
     -0.00000      0.00000     -0.00000         0.000000     -0.000000     -0.000000
      0.00000      0.00000      8.44242         0.000000     -0.000000     -0.000000
      0.00000      0.00000      1.84997         0.000000      0.000000      0.000517
      0.00000      0.00000     15.03487        -0.000000     -0.000000     -0.000517
    total drift:                                0.000000     -0.000000     -0.000000

  FREE ENERGIE OF THE ION-ELECTRON SYSTEM (eV)
  free  energy   TOTEN  =       -27.41718640 eV

  energy  without entropy=      -27.41718640  energy(sigma->0) =      -27.41718640

 d Force = 0.2893986E-07[-0.172E-07, 0.751E-07]  d Energy =-0.2185971E-07 0.508E-07
 d Force =-0.1143319E-01[-0.114E-01,-0.114E-01]  d Ewald  =-0.8754575E-02-0.268E-02

 Quasi-Newton relaxation of ions (Broydens 2nd method)
  g(Force)  = 0.258E-07   g(Stress)= 0.208E-05

 retain information from N=  1 steps
 eigenvalues of (default step * inverse Hessian matrix)
  average eigenvalue of G=   0.0004
 eigenvalue spectrum of G is  0.0004

 reached required accuracy - stopping structural energy minimisation
 writing wavefunctions