 vasp.5.4.4.18Apr17-6-g9f103f2a35 (build Dec 13 2019 19:06:22) complex

 executed on             LinuxIFC date 2021.07.02  15:55:40

 INCAR:
 POTCAR:    PAW_PBE Cu_sv_GW 05Dec2013
 POTCAR:    PAW_PBE Al_GW 19Mar2012
 POTCAR:    PAW_PBE O_GW 28Sep2005

 POTCAR:    PAW_PBE Cu_sv_GW 05Dec2013
   VRHFIN =Cu: d10 p1

   TITEL  = PAW_PBE Cu_sv_GW 05Dec2013
   POMASS =   63.546; ZVAL   =   19.000    mass and valenz
   ENMAX  =  391.688; ENMIN  =  293.766 eV

 POTCAR:    PAW_PBE Al_GW 19Mar2012
   VRHFIN =Al: s2p1

   TITEL  = PAW_PBE Al_GW 19Mar2012
   POMASS =   26.982; ZVAL   =    3.000    mass and valenz
   ENMAX  =  240.300; ENMIN  =  180.225 eV

 POTCAR:    PAW_PBE O_GW 28Sep2005
   VRHFIN =O: s2p4

   TITEL  = PAW_PBE O_GW 28Sep2005
   POMASS =   16.000; ZVAL   =    6.000    mass and valenz
   ENMAX  =  414.635; ENMIN  =  310.976 eV

  PAW_PBE Cu_sv_GW 05Dec2013            :
  PAW_PBE Al_GW 19Mar2012               :
  PAW_PBE O_GW 28Sep2005                :

 POSCAR: CuAlO2 BenkoF84
  positions in direct lattice
 exchange correlation table for  LEXCH =       14
   RHO(1)=    0.500       N(1)  =     2000
   RHO(2)=  100.500       N(2)  =     4000

 ion  position               nearest neighbor table
   1  0.000  0.000  0.000-   3 1.85   4 1.85
   2  0.500  0.500  0.500-   3 1.90   4 1.90   3 1.90   3 1.90   4 1.90   4 1.90
   3  0.110  0.110  0.110-   1 1.85   2 1.90   2 1.90   2 1.90
   4  0.890  0.890  0.890-   1 1.85   2 1.90   2 1.90   2 1.90

  LATTYP: Found a trigonal (rhomboedric) cell.
 ALAT       =     5.8622747487
 COS(alpha) =     0.8826433487

  Lattice vectors:

 A1 = (   1.4200545446,   0.8198688751,   5.6282790774)
 A2 = (  -1.4200545446,   0.8198688751,   5.6282790774)
 A3 = (   0.0000000000,  -1.6397377402,   5.6282790774)

Analysis of symmetry for initial positions (statically):
 Subroutine PRICEL returns:
 Original cell was already a primitive cell.

 Routine SETGRP: Setting up the symmetry group for a
 trigonal (rhombohedral) supercell.

 Subroutine GETGRP returns: Found 12 space group operations
 (whereof 12 operations were pure point group operations)
 out of a pool of 12 trial point group operations.

The static configuration has the point symmetry D_3d.

Analysis of symmetry for dynamics (positions and initial velocities):
 Subroutine PRICEL returns:
 Original cell was already a primitive cell.

 Routine SETGRP: Setting up the symmetry group for a
 trigonal (rhombohedral) supercell.

 Subroutine GETGRP returns: Found 12 space group operations
 (whereof 12 operations were pure point group operations)
 out of a pool of 12 trial point group operations.

The dynamic configuration has the point symmetry D_3d.

 Subroutine INISYM returns: Found 12 space group operations
 (whereof 12 operations are pure point group operations),
 and found     1 'primitive' translations

 KPOINTS: EMC 1.51py
  k-points in reciprocal lattice
Space group operators:
 irot       det(A)        alpha          n_x          n_y          n_z        tau_x        tau_y        tau_z
    1     1.000000     0.000000     1.000000     0.000000     0.000000     0.000000     0.000000     0.000000
    2    -1.000000     0.000000     1.000000     0.000000     0.000000     0.000000     0.000000     0.000000
    3     1.000000   180.000000    -0.500000     0.866025    -0.000000     0.000000     0.000000     0.000000
    4    -1.000000   180.000000    -0.500000     0.866025    -0.000000     0.000000     0.000000     0.000000
    5     1.000000   120.000000     0.000000    -0.000000    -1.000000     0.000000     0.000000     0.000000
    6    -1.000000   120.000000     0.000000    -0.000000    -1.000000     0.000000     0.000000     0.000000
    7     1.000000   180.000000     1.000000     0.000000     0.000000     0.000000     0.000000     0.000000
    8    -1.000000   180.000000     1.000000     0.000000     0.000000     0.000000     0.000000     0.000000
    9     1.000000   120.000000     0.000000     0.000000     1.000000     0.000000     0.000000     0.000000
   10    -1.000000   120.000000     0.000000     0.000000     1.000000     0.000000     0.000000     0.000000
   11     1.000000   180.000000     0.500000     0.866025    -0.000000     0.000000     0.000000     0.000000
   12    -1.000000   180.000000     0.500000     0.866025    -0.000000     0.000000     0.000000     0.000000

 SYSTEM =  unknown system
 POSCAR =  CuAlO2 BenkoF84

 Startparameter for this run:
   NWRITE =      2    write-flag & timer
   PREC   = accura    normal or accurate (medium, high low for compatibility)
   ISTART =      0    job   : 0-new  1-cont  2-samecut
   ICHARG =     11    charge: 1-file 2-atom 10-const
   ISPIN  =      1    spin polarized calculation?
   LNONCOLLINEAR =      F non collinear calculations
   LSORBIT =      F    spin-orbit coupling
   INIWAV =      1    electr: 0-lowe 1-rand  2-diag
   LASPH  =      F    aspherical Exc in radial PAW
   METAGGA=      F    non-selfconsistent MetaGGA calc.

 Electronic Relaxation 1
   ENCUT  =  550.0 eV  40.42 Ry    6.36 a.u.  11.21 11.21 11.21*2*pi/ulx,y,z
   ENINI  =  550.0     initial cutoff
   ENAUG  =  982.9 eV  augmentation charge cutoff
   NELM   =     60;   NELMIN=  2; NELMDL= -5     # of ELM steps
   EDIFF  = 0.1E-06   stopping-criterion for ELM
   LREAL  =      F    real-space projection
   NLSPLINE    = F    spline interpolate recip. space projectors
   LCOMPAT=      F    compatible to vasp.4.4
   GGA_COMPAT  = T    GGA compatible to vasp.4.4-vasp.4.6
   LMAXPAW     = -100 max onsite density
   LMAXMIX     =    2 max onsite mixed and CHGCAR
   VOSKOWN=      0    Vosko Wilk Nusair interpolation
   ROPT   =    0.00000   0.00000   0.00000
 Ionic relaxation
   EDIFFG = 0.1E-05   stopping-criterion for IOM
   NSW    =      0    number of steps for IOM
   NBLOCK =      1;   KBLOCK =      1    inner block; outer block
   IBRION =     -1    ionic relax: 0-MD 1-quasi-New 2-CG
   NFREE  =      0    steps in history (QN), initial steepest desc. (CG)
   ISIF   =      2    stress and relaxation
   IWAVPR =     10    prediction:  0-non 1-charg 2-wave 3-comb
   ISYM   =      2    0-nonsym 1-usesym 2-fastsym
   LCORR  =      T    Harris-Foulkes like correction to forces

   POTIM  = 0.5000    time-step for ionic-motion
   TEIN   =    0.0    initial temperature
   TEBEG  =    0.0;   TEEND  =   0.0 temperature during run
   SMASS  =  -3.00    Nose mass-parameter (am)
   estimated Nose-frequenzy (Omega)   =  0.10E-29 period in steps =****** mass=  -0.785E-27a.u.
   SCALEE = 1.0000    scale energy and forces
   NPACO  =    256;   APACO  = 16.0  distance and # of slots for P.C.
   PSTRESS=    0.0 pullay stress

  Mass of Ions in am
   POMASS =  63.55 26.98 16.00
  Ionic Valenz
   ZVAL   =  19.00  3.00  6.00
  Atomic Wigner-Seitz radii
  virtual crystal weights
   VCA    =   1.00  1.00  1.00
   NELECT =      34.0000    total number of electrons
   NUPDOWN=      -1.0000    fix difference up-down

 DOS related values:
   EMIN   =  10.00;   EMAX   =-10.00  energy-range for DOS
   EFERMI =   0.00
   ISMEAR =     0;   SIGMA  =   0.20  broadening in eV -4-tet -1-fermi 0-gaus

 Electronic relaxation 2 (details)
   IALGO  =     68    algorithm
   LDIAG  =      T    sub-space diagonalisation (order eigenvalues)
   LSUBROT=      F    optimize rotation matrix (better conditioning)
   TURBO    =      0    0=normal 1=particle mesh
   IRESTART =      0    0=no restart 2=restart with 2 vectors
   NREBOOT  =      0    no. of reboots
   NMIN     =      0    reboot dimension
   EREF     =   0.00    reference energy to select bands
   IMIX   =      4    mixing-type and parameters
     AMIX     =   0.40;   BMIX     =  1.00
     AMIX_MAG =   1.60;   BMIX_MAG =  1.00
     AMIN     =   0.10
     WC   =   100.;   INIMIX=   1;  MIXPRE=   1;  MAXMIX= -45

 Intra band minimization:
   WEIMIN = 0.0000     energy-eigenvalue tresh-hold
   EBREAK =  0.69E-09  absolut break condition
   DEPER  =   0.30     relativ break condition

   TIME   =   0.40     timestep for ELM

  volume/ion in A,a.u.               =       9.83        66.33
  Fermi-wavevector in a.u.,A,eV,Ry     =   1.559705  2.947414 33.098602  2.432679
  Thomas-Fermi vector in A             =   2.663024

 Write flags
   LWAVE        =      F    write WAVECAR
   LDOWNSAMPLE  =      F    k-point downsampling of WAVECAR
   LCHARG       =      F    write CHGCAR
   LVTOT        =      F    write LOCPOT, total local potential
   LVHAR        =      F    write LOCPOT, Hartree potential only
   LELF         =      F    write electronic localiz. function (ELF)
   LORBIT       =      0    0 simple, 1 ext, 2 COOP (PROOUT), +10 PAW based schemes

 Dipole corrections
   LMONO  =      F    monopole corrections only (constant potential shift)
   LDIPOL =      F    correct potential (dipole corrections)
   IDIPOL =      0    1-x, 2-y, 3-z, 4-all directions
   EPSILON=  1.0000000 bulk dielectric constant

 Exchange correlation treatment:
   GGA     =    PS    GGA type
   VOSKOWN=      0    Vosko Wilk Nusair interpolation
   LHFCALC =     F    Hartree Fock is set to
   LHFONE  =     F    Hartree Fock one center treatment
   AEXX    =    0.0000 exact exchange contribution

 Linear response parameters
   LEPSILON=     F    determine dielectric tensor
   LRPA    =     F    only Hartree local field effects (RPA)
   LNABLA  =     F    use nabla operator in PAW spheres
   LVEL    =     F    velocity operator in full k-point grid
   LINTERFAST=   F  fast interpolation
   KINTER  =     0    interpolate to denser k-point grid
   CSHIFT  =0.1000    complex shift for real part using Kramers Kronig
   OMEGAMAX=  -1.0    maximum frequency
   DEG_THRESHOLD= 0.2000000E-02 threshold for treating states as degnerate
   RTIME   =   -0.100 relaxation time in fs
  (WPLASMAI=    0.000 imaginary part of plasma frequency in eV, 0.658/RTIME)
   DFIELD  = 0.0000000 0.0000000 0.0000000 field for delta impulse in time

 Orbital magnetization related:
   ORBITALMAG=     F  switch on orbital magnetization
   LCHIMAG   =     F  perturbation theory with respect to B field
   DQ        =  0.001000  dq finite difference perturbation B field
   LLRAUG    =     F  two centre corrections for induced B field

 Static calculation
 charge density and potential remain constant during run
 non-spin polarized calculation
 RMM-DIIS sequential band-by-band and
  variant of blocked Davidson during initial phase
 perform sub-space diagonalisation
    before iterative eigenvector-optimisation
 no mixing
 using additional bands           19
 reciprocal scheme for non local part
 use partial core corrections
 calculate Harris-corrections to forces
   (improved forces if not selfconsistent)
 use gradient corrections
 WARNING: stress and forces are not correct
  (second derivative of E(xc) not defined)
 use of overlap-Matrix (Vanderbilt PP)
 Gauss-broadening in eV      SIGMA  =   0.20

  energy-cutoff  :      550.00
  volume of cell :       39.32
      direct lattice vectors                 reciprocal lattice vectors
     1.420054545  0.819868875  5.628279077     0.352099151  0.203284540  0.059224734
    -1.420054545  0.819868875  5.628279077    -0.352099151  0.203284540  0.059224734
[...]
   0.17604958  0.09863468  0.02810857       0.016
   0.17604958  0.10013847  0.02810857       0.016
   0.17604958  0.10314607  0.02810857       0.016
   0.17604958  0.10464986  0.02810857       0.016
   0.17604958  0.09863468  0.03111616       0.016
   0.17604958  0.10013847  0.03111616       0.016
   0.17604958  0.10314607  0.03111616       0.016
   0.17604958  0.10464986  0.03111616       0.016
   0.17604958  0.09863468  0.03261996       0.016
   0.17604958  0.10013847  0.03261996       0.016
   0.17604958  0.10314607  0.03261996       0.016
   0.17604958  0.10464986  0.03261996       0.016

 k-points in reciprocal lattice and weights: EMC 1.51py
   0.50000000  0.00000000  0.00000000       0.016
   0.49572905  0.00427095  0.00000000       0.016
   0.49786453  0.00213547  0.00000000       0.016
   0.50213547 -0.00213547  0.00000000       0.016
   0.50427095 -0.00427095  0.00000000       0.016
   0.49753417 -0.00246583  0.00493166       0.016
   0.49876708 -0.00123292  0.00246583       0.016
   0.50123292  0.00123292 -0.00246583       0.016
   0.50246583  0.00246583 -0.00493166       0.016
   0.48307243 -0.01692757 -0.01692757       0.016
   0.49153621 -0.00846379 -0.00846379       0.016
   0.50846379  0.00846379  0.00846379       0.016
   0.51692757  0.01692757  0.01692757       0.016
   0.49326322  0.00180511  0.00493166       0.016
   0.49539870 -0.00033036  0.00493166       0.016
   0.49966964 -0.00460130  0.00493166       0.016
   0.50180511 -0.00673678  0.00493166       0.016
   0.49449614  0.00303803  0.00246583       0.016
   0.49663161  0.00090256  0.00246583       0.016
   0.50090256 -0.00336839  0.00246583       0.016
   0.50303803 -0.00550386  0.00246583       0.016
   0.49696197  0.00550386 -0.00246583       0.016
   0.49909744  0.00336839 -0.00246583       0.016
   0.50336839 -0.00090256 -0.00246583       0.016
   0.50550386 -0.00303803 -0.00246583       0.016
   0.49819489  0.00673678 -0.00493166       0.016
   0.50033036  0.00460130 -0.00493166       0.016
   0.50460130  0.00033036 -0.00493166       0.016
   0.50673678 -0.00180511 -0.00493166       0.016
   0.47880148 -0.01265662 -0.01692757       0.016
   0.48093696 -0.01479210 -0.01692757       0.016
   0.48520790 -0.01906304 -0.01692757       0.016
   0.48734338 -0.02119852 -0.01692757       0.016
   0.48726527 -0.00419284 -0.00846379       0.016
   0.48940074 -0.00632831 -0.00846379       0.016
   0.49367169 -0.01059926 -0.00846379       0.016
   0.49580716 -0.01273473 -0.00846379       0.016
   0.50419284  0.01273473  0.00846379       0.016
   0.50632831  0.01059926  0.00846379       0.016
   0.51059926  0.00632831  0.00846379       0.016
   0.51273473  0.00419284  0.00846379       0.016
   0.51265662  0.02119852  0.01692757       0.016
   0.51479210  0.01906304  0.01692757       0.016
   0.51906304  0.01479210  0.01692757       0.016
   0.52119852  0.01265662  0.01692757       0.016
   0.48060660 -0.01939340 -0.01199591       0.016
   0.48183951 -0.01816049 -0.01446174       0.016
   0.48430535 -0.01569465 -0.01939340       0.016
   0.48553826 -0.01446174 -0.02185923       0.016
   0.48907038 -0.01092962 -0.00353212       0.016
   0.49030330 -0.00969670 -0.00599795       0.016
   0.49276913 -0.00723087 -0.01092962       0.016
   0.49400205 -0.00599795 -0.01339545       0.016
   0.50599795  0.00599795  0.01339545       0.016
   0.50723087  0.00723087  0.01092962       0.016
   0.50969670  0.00969670  0.00599795       0.016
   0.51092962  0.01092962  0.00353212       0.016
   0.51446174  0.01446174  0.02185923       0.016
   0.51569465  0.01569465  0.01939340       0.016
   0.51816049  0.01816049  0.01446174       0.016
   0.51939340  0.01939340  0.01199591       0.016

 position of ions in fractional coordinates (direct lattice)
   0.00000000  0.00000000  0.00000000
   0.50000000  0.50000000  0.50000000
   0.10956395  0.10956395  0.10956395
   0.89043605  0.89043605  0.89043605

 position of ions in cartesian coordinates  (Angst):
   0.00000000  0.00000000  0.00000000
   0.00000000  0.00000000  8.44241862
  -0.00000000  0.00000000  1.84996950
   0.00000000  0.00000001 15.03486773

 k-point  1 :   0.5000 0.0000 0.0000  plane waves:    1140
 k-point  2 :   0.4957 0.0043 0.0000  plane waves:    1140
 k-point  3 :   0.4979 0.0021 0.0000  plane waves:    1140
 k-point  4 :   0.5021-0.0021 0.0000  plane waves:    1140
 k-point  5 :   0.5043-0.0043 0.0000  plane waves:    1140
 k-point  6 :   0.4975-0.0025 0.0049  plane waves:    1140
 k-point  7 :   0.4988-0.0012 0.0025  plane waves:    1140
 k-point  8 :   0.5012 0.0012-0.0025  plane waves:    1140
 k-point  9 :   0.5025 0.0025-0.0049  plane waves:    1140
 k-point 10 :   0.4831-0.0169-0.0169  plane waves:    1140
 k-point 11 :   0.4915-0.0085-0.0085  plane waves:    1140
 k-point 12 :   0.5085 0.0085 0.0085  plane waves:    1140
 k-point 13 :   0.5169 0.0169 0.0169  plane waves:    1140
 k-point 14 :   0.4933 0.0018 0.0049  plane waves:    1139
 k-point 15 :   0.4954-0.0003 0.0049  plane waves:    1140
 k-point 16 :   0.4997-0.0046 0.0049  plane waves:    1140
 k-point 17 :   0.5018-0.0067 0.0049  plane waves:    1138
 k-point 18 :   0.4945 0.0030 0.0025  plane waves:    1140
 k-point 19 :   0.4966 0.0009 0.0025  plane waves:    1140
 k-point 20 :   0.5009-0.0034 0.0025  plane waves:    1140
 k-point 21 :   0.5030-0.0055 0.0025  plane waves:    1140
 k-point 22 :   0.4970 0.0055-0.0025  plane waves:    1140
 k-point 23 :   0.4991 0.0034-0.0025  plane waves:    1140
 k-point 24 :   0.5034-0.0009-0.0025  plane waves:    1140
 k-point 25 :   0.5055-0.0030-0.0025  plane waves:    1140
 k-point 26 :   0.4982 0.0067-0.0049  plane waves:    1138
 k-point 27 :   0.5003 0.0046-0.0049  plane waves:    1140
 k-point 28 :   0.5046 0.0003-0.0049  plane waves:    1140
 k-point 29 :   0.5067-0.0018-0.0049  plane waves:    1139
 k-point 30 :   0.4788-0.0127-0.0169  plane waves:    1138
 k-point 31 :   0.4809-0.0148-0.0169  plane waves:    1138
 k-point 32 :   0.4852-0.0191-0.0169  plane waves:    1140
 k-point 33 :   0.4873-0.0212-0.0169  plane waves:    1139
 k-point 34 :   0.4873-0.0042-0.0085  plane waves:    1139
 k-point 35 :   0.4894-0.0063-0.0085  plane waves:    1140
 k-point 36 :   0.4937-0.0106-0.0085  plane waves:    1140
 k-point 37 :   0.4958-0.0127-0.0085  plane waves:    1140
 k-point 38 :   0.5042 0.0127 0.0085  plane waves:    1140
 k-point 39 :   0.5063 0.0106 0.0085  plane waves:    1140
 k-point 40 :   0.5106 0.0063 0.0085  plane waves:    1140
 k-point 41 :   0.5127 0.0042 0.0085  plane waves:    1139
 k-point 42 :   0.5127 0.0212 0.0169  plane waves:    1139
 k-point 43 :   0.5148 0.0191 0.0169  plane waves:    1140
 k-point 44 :   0.5191 0.0148 0.0169  plane waves:    1138
 k-point 45 :   0.5212 0.0127 0.0169  plane waves:    1138
 k-point 46 :   0.4806-0.0194-0.0120  plane waves:    1138
 k-point 47 :   0.4818-0.0182-0.0145  plane waves:    1139
 k-point 48 :   0.4843-0.0157-0.0194  plane waves:    1139
 k-point 49 :   0.4855-0.0145-0.0219  plane waves:    1139
 k-point 50 :   0.4891-0.0109-0.0035  plane waves:    1139
 k-point 51 :   0.4903-0.0097-0.0060  plane waves:    1140
 k-point 52 :   0.4928-0.0072-0.0109  plane waves:    1140
 k-point 53 :   0.4940-0.0060-0.0134  plane waves:    1139
 k-point 54 :   0.5060 0.0060 0.0134  plane waves:    1139
 k-point 55 :   0.5072 0.0072 0.0109  plane waves:    1140
 k-point 56 :   0.5097 0.0097 0.0060  plane waves:    1140
 k-point 57 :   0.5109 0.0109 0.0035  plane waves:    1139
 k-point 58 :   0.5145 0.0145 0.0219  plane waves:    1139
 k-point 59 :   0.5157 0.0157 0.0194  plane waves:    1139
 k-point 60 :   0.5182 0.0182 0.0145  plane waves:    1139
 k-point 61 :   0.5194 0.0194 0.0120  plane waves:    1138

 maximum and minimum number of plane-waves per node :      1140     1138

 maximum number of plane-waves:      1140
 maximum index in each direction:
   IXMAX=   10   IYMAX=   11   IZMAX=   11
   IXMIN=  -11   IYMIN=  -11   IZMIN=  -11

 serial   3D FFT for wavefunctions
 parallel 3D FFT for charge:
    minimum data exchange during FFTs selected (reduces bandwidth)

 initial charge density was supplied:
 number of electron      34.0000002 magnetization
 keeping initial charge density in first step

 Maximum index for augmentation-charges         8947 (set IRDMAX)

 First call to EWALD:  gamma=   0.521
 Maximum number of real-space cells 4x 4x 4
 Maximum number of reciprocal cells 4x 4x 4

--------------------------------------- Iteration      1(   1)  ---------------------------------------

 eigenvalue-minimisations  :  6576
 total energy-change (2. order) : 0.3158741E+03  (-0.1799426E+04)
 number of electron      34.0000002 magnetization
 augmentation part       34.0000002 magnetization

 Free energy of the ion-electron system (eV)
  alpha Z        PSCENC =       167.28213848
  Ewald energy   TEWEN  =     -3351.06778565
  -Hartree energ DENC   =     -2400.81965511
  -exchange      EXHF   =         0.00000000
  -V(xc)+E(xc)   XCENC  =       180.92806670
  PAW double counting   =      5402.02430262    -5725.83564433
  entropy T*S    EENTRO =        -0.02472669
  eigenvalues    EBANDS =      -250.11363413
  atomic energy  EATOM  =      6293.50105541
  Solvation  Ediel_sol  =         0.00000000
  free energy    TOTEN  =       315.87411731 eV

  energy without entropy =      315.89884400  energy(sigma->0) =      315.88648065

[...]

 eigenvalue-minimisations  :  7080
 total energy-change (2. order) :-0.3249660E+03  (-0.3057696E+03)
 number of electron      34.0000002 magnetization
 augmentation part       34.0000002 magnetization

[...]

--------------------------------------- Iteration      1(  21)  ---------------------------------------

 eigenvalue-minimisations  :  4388
 total energy-change (2. order) :-0.6873870E-07  (-0.3707366E-07)
 number of electron      34.0000002 magnetization
 augmentation part       34.0000002 magnetization

 Free energy of the ion-electron system (eV)
  alpha Z        PSCENC =       167.28213848
  Ewald energy   TEWEN  =     -3351.06778565
  -Hartree energ DENC   =     -2400.81965511
  -exchange      EXHF   =         0.00000000
  -V(xc)+E(xc)   XCENC  =       180.92806670
  PAW double counting   =      5402.02430262    -5725.83564433
  entropy T*S    EENTRO =        -0.00000000
  eigenvalues    EBANDS =      -593.14043123
  atomic energy  EATOM  =      6293.50105541
  Solvation  Ediel_sol  =         0.00000000
  free energy    TOTEN  =       -27.12795311 eV

  energy without entropy =      -27.12795311  energy(sigma->0) =      -27.12795311

 average (electrostatic) potential at core
  the test charge radii are     0.8846  1.0406  0.7215
  (the norm of the test charge is              1.0000)
       1 -76.0605       2 -50.7235       3 -69.6804       4 -69.6804

 E-fermi :   6.7961     XC(G=0): -11.9989     alpha+bet :-13.2687

 k-point     1 :       0.5000    0.0000    0.0000
  band No.  band energies     occupation
      1    -105.4652      2.00000
      2     -63.1592      2.00000
      3     -62.9724      2.00000
      4     -62.9562      2.00000
      5     -13.5039      2.00000
      6     -12.8146      2.00000
      7      -2.3011      2.00000
      8      -1.8668      2.00000
      9       0.2995      2.00000
     10       1.0262      2.00000
     11       1.9181      2.00000
     12       2.6360      2.00000
     13       3.1557      2.00000
     14       4.2684      2.00000
     15       4.5727      2.00000
     16       4.8364      2.00000
     17       5.7581      2.00000
     18       8.3180      0.00000
     19      11.8964      0.00000
     20      13.5608      0.00000
     21      16.8110      0.00000
     22      17.2929      0.00000
     23      18.2095      0.00000
     24      21.5742      0.00000
     25      21.0868      0.00000
     26      22.9129      0.00000
     27      25.7039      0.00000
     28      28.6394      0.00000
     29      28.8935      0.00000
     30      24.4046      0.00000
     31      31.3482      0.00000
     32      18.8336      0.00000
     33      34.3589      0.00000
     34      35.7626      0.00000
     35      32.5106      0.00000
     36      30.7093      0.00000

[...]

 k-point    61 :       0.5194    0.0194    0.0120
  band No.  band energies     occupation
      1    -105.4652      2.00000
      2     -63.1591      2.00000
      3     -62.9724      2.00000
      4     -62.9561      2.00000
      5     -13.5040      2.00000
      6     -12.8145      2.00000
      7      -2.3009      2.00000
      8      -1.8651      2.00000
      9       0.3000      2.00000
     10       1.0236      2.00000
     11       1.9187      2.00000
     12       2.6321      2.00000
     13       3.1574      2.00000
     14       4.2687      2.00000
     15       4.5735      2.00000
     16       4.8355      2.00000
     17       5.7553      2.00000
     18       8.3237      0.00000
     19      11.8990      0.00000
     20      13.5644      0.00000
     21      16.8025      0.00000
     22      17.2956      0.00000
     23      18.2070      0.00000
     24      21.2866      0.00000
     25      21.6133      0.00000
     26      19.7828      0.00000
     27      22.9099      0.00000
     28      25.7171      0.00000
     29      28.5823      0.00000
     30      28.9256      0.00000
     31      16.1274      0.00000
     32      31.5092      0.00000
     33      33.0177      0.00000
     34      33.0643      0.00000
     35      35.8224      0.00000
     36      30.2236      0.00000

 soft charge-density along one line, spin component           1
         0         1         2         3         4         5         6         7         8         9
 total charge-density along one line

------------------------ aborting loop because EDIFF is reached ----------------------------------------

  FORCE on cell =-STRESS in cart. coord.  units (eV):
  Direction    XX          YY          ZZ          XY          YZ          ZX
  Alpha Z   167.28214   167.28214   167.28214
  Ewald   -1091.24516 -1091.24515 -1168.58029     0.00000     0.00000     0.00000
  Hartree   901.86363   901.86363   662.44468    -0.00000     0.00000     0.00000
  E(xc)    -218.98461  -218.98461  -218.50843     0.00000     0.00000     0.00000
  Local    -349.54592  -349.54592   -43.53312    -0.00000    -0.00000     0.00000
  n-local  -129.95188  -130.85696  -133.56190     0.78222    -0.89777    -1.55697
  augment   210.47543   210.47542   207.86564    -0.00000     0.00000     0.00000
  Kinetic   605.48206   623.24678   615.86035   -15.38464     0.62611     1.08433
  Fock        0.00000     0.00000     0.00000     0.00000     0.00000     0.00000
  Total     103.80552   103.80552    89.26907     0.00000     0.00000    -0.00000
  in kB    4230.13986  4230.13984  3637.77056     0.00000     0.00000    -0.00000

 VOLUME and BASIS-vectors are now :
  energy-cutoff  :      550.00
  volume of cell :       39.32
      direct lattice vectors                 reciprocal lattice vectors
     1.420054545  0.819868875  5.628279077     0.352099151  0.203284540  0.059224734
    -1.420054545  0.819868875  5.628279077    -0.352099151  0.203284540  0.059224734
     0.000000000 -1.639737740  5.628279077    -0.000000000 -0.406569081  0.059224735

  length of vectors
     5.862274751  5.862274751  5.862274749     0.410860056  0.410860056  0.410860057

 FORCES acting on ions
    electron-ion (+dipol)            ewald-force                    non-local-force                 convergence-correction
   0.389E-13 0.864E-13 -.135E-12   0.149E-13 -.146E-13 -.114E-12   -.623E-21 0.621E-20 -.452E-20   -.410E-11 -.828E-11 -.114E-10
   -.442E-12 -.538E-12 -.538E-12   -.323E-14 -.364E-14 0.284E-13   -.172E-23 0.221E-22 0.452E-23   0.282E-13 0.461E-13 0.379E-12
   0.133E-10 -.145E-06 -.350E+03   -.196E-14 0.446E-07 0.344E+03   -.528E-17 0.469E-08 0.792E+01   -.208E-11 0.341E-08 -.132E+01
   -.851E-11 0.145E-06 0.350E+03   0.173E-14 -.446E-07 -.344E+03   0.333E-16 -.469E-08 -.792E+01   0.946E-12 -.342E-08 0.132E+01
   0.439E-11 0.131E-10 -.222E-11   0.114E-13 -.139E-13 0.000E+00   0.280E-16 0.254E-17 0.000E+00   -.521E-11 -.112E-10 -.792E-11

 POSITION                                       TOTAL-FORCE (eV/Angst)
      0.00000      0.00000      0.00000         0.000000      0.000000      0.000000
      0.00000      0.00000      8.44242         0.000000      0.000000      0.000000
     -0.00000      0.00000      1.84997        -0.000000      0.000000      0.930531
      0.00000      0.00000     15.03487         0.000000     -0.000000     -0.930531
    total drift:                               -0.000000      0.000000     -0.000000

  FREE ENERGIE OF THE ION-ELECTRON SYSTEM (eV)
  free  energy   TOTEN  =       -27.12795311 eV

  energy  without entropy=      -27.12795311  energy(sigma->0) =      -27.12795311