 vasp.5.4.4.18Apr17-6-g9f103f2a35 (build Dec 13 2019 19:06:22) complex

 executed on             LinuxIFC date 2021.07.02  01:01:05

 INCAR:
 POTCAR:    PAW_PBE Cu_sv_GW 05Dec2013
 POTCAR:    PAW_PBE Al_GW 19Mar2012
 POTCAR:    PAW_PBE O_GW 28Sep2005

 POTCAR:    PAW_PBE Cu_sv_GW 05Dec2013
   VRHFIN =Cu: d10 p1

   TITEL  = PAW_PBE Cu_sv_GW 05Dec2013
   POMASS =   63.546; ZVAL   =   19.000    mass and valenz
   ENMAX  =  391.688; ENMIN  =  293.766 eV

 POTCAR:    PAW_PBE Al_GW 19Mar2012
   VRHFIN =Al: s2p1

   TITEL  = PAW_PBE Al_GW 19Mar2012
   POMASS =   26.982; ZVAL   =    3.000    mass and valenz
   ENMAX  =  240.300; ENMIN  =  180.225 eV

 POTCAR:    PAW_PBE O_GW 28Sep2005
   VRHFIN =O: s2p4

   TITEL  = PAW_PBE O_GW 28Sep2005
   POMASS =   16.000; ZVAL   =    6.000    mass and valenz
   ENMAX  =  414.635; ENMIN  =  310.976 eV

  PAW_PBE Cu_sv_GW 05Dec2013            :
  PAW_PBE Al_GW 19Mar2012               :
  PAW_PBE O_GW 28Sep2005                :

 POSCAR: CuAlO2 BenkoF84
  positions in direct lattice
  velocities in cartesian coordinates
 exchange correlation table for  LEXCH =       14
   RHO(1)=    0.500       N(1)  =     2000
   RHO(2)=  100.500       N(2)  =     4000

 ion  position               nearest neighbor table
   1  0.000  0.000  0.000-   3 1.85   4 1.85
   2  0.500  0.500  0.500-   3 1.90   4 1.90   3 1.90   4 1.90   3 1.90   4 1.90
   3  0.110  0.110  0.110-   1 1.85   2 1.90   2 1.90   2 1.90
   4  0.890  0.890  0.890-   1 1.85   2 1.90   2 1.90   2 1.90

  LATTYP: Found a trigonal (rhomboedric) cell.
 ALAT       =     5.8620916233
 COS(alpha) =     0.8826491989

  Lattice vectors:

 A1 = (   1.4199747912,   0.8198228294,   5.6281151682)
 A2 = (  -1.4199747912,   0.8198228294,   5.6281151682)
 A3 = (  -0.0000000000,  -1.6396456489,   5.6281151682)

Analysis of symmetry for initial positions (statically):
 Subroutine PRICEL returns:
 Original cell was already a primitive cell.

 Routine SETGRP: Setting up the symmetry group for a
 trigonal (rhombohedral) supercell.

 Subroutine GETGRP returns: Found 12 space group operations
 (whereof 12 operations were pure point group operations)
 out of a pool of 12 trial point group operations.

The static configuration has the point symmetry D_3d.

Analysis of symmetry for dynamics (positions and initial velocities):
 Subroutine PRICEL returns:
 Original cell was already a primitive cell.

 Routine SETGRP: Setting up the symmetry group for a
 trigonal (rhombohedral) supercell.

 Subroutine GETGRP returns: Found 12 space group operations
 (whereof 12 operations were pure point group operations)
 out of a pool of 12 trial point group operations.

The dynamic configuration has the point symmetry D_3d.

 Subroutine INISYM returns: Found 12 space group operations
 (whereof 12 operations are pure point group operations),
 and found     1 'primitive' translations

 KPOINTS: CuMO2

Automatic generation of k-mesh.
Space group operators:
 irot       det(A)        alpha          n_x          n_y          n_z        tau_x        tau_y        tau_z
    1     1.000000     0.000000     1.000000     0.000000     0.000000     0.000000     0.000000     0.000000
    2    -1.000000     0.000000     1.000000     0.000000     0.000000     0.000000     0.000000     0.000000
    3     1.000000   180.000000    -0.500000     0.866025    -0.000000     0.000000     0.000000     0.000000
    4    -1.000000   180.000000    -0.500000     0.866025    -0.000000     0.000000     0.000000     0.000000
    5     1.000000   120.000000     0.000000    -0.000000    -1.000000     0.000000     0.000000     0.000000
    6    -1.000000   120.000000     0.000000    -0.000000    -1.000000     0.000000     0.000000     0.000000
    7     1.000000   180.000000     1.000000     0.000000     0.000000     0.000000     0.000000     0.000000
    8    -1.000000   180.000000     1.000000     0.000000     0.000000     0.000000     0.000000     0.000000
    9     1.000000   120.000000     0.000000     0.000000     1.000000     0.000000     0.000000     0.000000
   10    -1.000000   120.000000     0.000000     0.000000     1.000000     0.000000     0.000000     0.000000
   11     1.000000   180.000000     0.500000     0.866025    -0.000000     0.000000     0.000000     0.000000
   12    -1.000000   180.000000     0.500000     0.866025    -0.000000     0.000000     0.000000     0.000000

 Subroutine IBZKPT returns following result:

 Found    116 irreducible k-points:

 Following reciprocal coordinates:
            Coordinates               Weight
  0.000000  0.000000  0.000000      1.000000
  0.100000  0.000000 -0.000000      6.000000
  0.200000 -0.000000  0.000000      6.000000
  0.300000  0.000000 -0.000000      6.000000
  0.400000 -0.000000  0.000000      6.000000
  0.500000 -0.000000  0.000000      3.000000
  0.100000  0.100000  0.000000      6.000000
  0.200000  0.100000 -0.000000     12.000000
  0.300000  0.100000  0.000000     12.000000
  0.400000  0.100000  0.000000     12.000000
  0.500000  0.100000  0.000000     12.000000
 -0.400000  0.100000 -0.000000     12.000000
 -0.300000  0.100000  0.000000     12.000000
 -0.200000  0.100000  0.000000     12.000000
 -0.100000  0.100000  0.000000      6.000000
  0.200000  0.200000  0.000000      6.000000
  0.300000  0.200000  0.000000     12.000000
  0.400000  0.200000  0.000000     12.000000
  0.500000  0.200000 -0.000000     12.000000
 -0.400000  0.200000  0.000000     12.000000
 -0.300000  0.200000 -0.000000     12.000000
 -0.200000  0.200000  0.000000      6.000000
  0.300000  0.300000  0.000000      6.000000
  0.400000  0.300000 -0.000000     12.000000
  0.500000  0.300000  0.000000     12.000000
 -0.400000  0.300000  0.000000     12.000000
 -0.300000  0.300000  0.000000      6.000000
  0.400000  0.400000  0.000000      6.000000
  0.500000  0.400000  0.000000     12.000000
 -0.400000  0.400000  0.000000      6.000000
  0.500000  0.500000  0.000000      3.000000
  0.100000  0.100000  0.100000      2.000000
  0.200000  0.100000  0.100000      6.000000
  0.300000  0.100000  0.100000      6.000000
  0.400000  0.100000  0.100000      6.000000
  0.500000  0.100000  0.100000      6.000000
 -0.400000  0.100000  0.100000      6.000000
 -0.300000  0.100000  0.100000      6.000000
 -0.200000  0.100000  0.100000      6.000000
 -0.100000  0.100000  0.100000      6.000000
  0.200000  0.200000  0.100000      6.000000
  0.300000  0.200000  0.100000     12.000000
  0.400000  0.200000  0.100000     12.000000
  0.500000  0.200000  0.100000     12.000000
 -0.400000  0.200000  0.100000     12.000000
 -0.300000  0.200000  0.100000     12.000000
 -0.200000  0.200000  0.100000     12.000000
 -0.100000  0.200000  0.100000     12.000000
  0.300000  0.300000  0.100000      6.000000
  0.400000  0.300000  0.100000     12.000000
  0.500000  0.300000  0.100000     12.000000
 -0.400000  0.300000  0.100000     12.000000
 -0.300000  0.300000  0.100000     12.000000
 -0.200000  0.300000  0.100000     12.000000
 -0.100000  0.300000  0.100000     12.000000
  0.400000  0.400000  0.100000      6.000000
  0.500000  0.400000  0.100000     12.000000
 -0.400000  0.400000  0.100000     12.000000
 -0.300000  0.400000  0.100000     12.000000
 -0.200000  0.400000  0.100000     12.000000
[...]
 -0.300000  0.300000  0.300000      6.000000
  0.400000  0.400000  0.300000      6.000000
  0.500000  0.400000  0.300000     12.000000
 -0.400000  0.400000  0.300000     12.000000
 -0.300000  0.400000  0.300000     12.000000
  0.500000  0.500000  0.300000      6.000000
 -0.400000  0.500000  0.300000     12.000000
 -0.300000  0.500000  0.300000      6.000000
 -0.400000 -0.400000  0.300000      6.000000
  0.400000  0.400000  0.400000      2.000000
  0.500000  0.400000  0.400000      6.000000
 -0.400000  0.400000  0.400000      6.000000
  0.500000  0.500000  0.400000      6.000000
 -0.400000  0.500000  0.400000      6.000000
  0.500000  0.500000  0.500000      1.000000

 Following cartesian coordinates:
            Coordinates               Weight
  0.000000  0.000000  0.000000      1.000000
  0.035212  0.020330  0.005923      6.000000
  0.070424  0.040659  0.011845      6.000000
  0.105636  0.060989  0.017768      6.000000
  0.140848  0.081318  0.023691      6.000000
  0.176059  0.101648  0.029613      3.000000
  0.000000  0.040659  0.011845      6.000000
  0.035212  0.060989  0.017768     12.000000
  0.070424  0.081318  0.023691     12.000000
  0.105636  0.101648  0.029613     12.000000
  0.140848  0.121978  0.035536     12.000000
 -0.176059 -0.060989 -0.017768     12.000000
 -0.140848 -0.040659 -0.011845     12.000000
 -0.105636 -0.020330 -0.005923     12.000000
 -0.070424  0.000000 -0.000000      6.000000
 -0.000000  0.081318  0.023691      6.000000
  0.035212  0.101648  0.029613     12.000000
  0.070424  0.121978  0.035536     12.000000
  0.105636  0.142307  0.041459     12.000000
 -0.211271 -0.040659 -0.011845     12.000000
 -0.176059 -0.020330 -0.005923     12.000000
 -0.140848  0.000000 -0.000000      6.000000
  0.000000  0.121978  0.035536      6.000000
  0.035212  0.142307  0.041459     12.000000
  0.070424  0.162637  0.047381     12.000000
 -0.246483 -0.020330 -0.005923     12.000000
 -0.211271  0.000000 -0.000000      6.000000
 -0.000000  0.162637  0.047381      6.000000
  0.035212  0.182966  0.053304     12.000000
 -0.281695  0.000000 -0.000000      6.000000
  0.000000  0.203296  0.059226      3.000000
  0.000000  0.000000  0.017768      2.000000
  0.035212  0.020330  0.023691      6.000000
  0.070424  0.040659  0.029613      6.000000
  0.105636  0.060989  0.035536      6.000000
  0.140848  0.081318  0.041459      6.000000
 -0.176059 -0.101648 -0.011845      6.000000
 -0.140848 -0.081318 -0.005923      6.000000
 -0.105636 -0.060989  0.000000      6.000000
 -0.070424 -0.040659  0.005923      6.000000
  0.000000  0.040659  0.029613      6.000000
  0.035212  0.060989  0.035536     12.000000
  0.070424  0.081318  0.041459     12.000000
  0.105636  0.101648  0.047381     12.000000
 -0.211271 -0.081318 -0.005923     12.000000
 -0.176059 -0.060989  0.000000     12.000000
 -0.140848 -0.040659  0.005923     12.000000
 -0.105636 -0.020330  0.011845     12.000000
  0.000000  0.081318  0.041459      6.000000
  0.035212  0.101648  0.047381     12.000000
  0.070424  0.121978  0.053304     12.000000
 -0.246483 -0.060989  0.000000     12.000000
 -0.211271 -0.040659  0.005923     12.000000
 -0.176059 -0.020330  0.011845     12.000000
 -0.140848  0.000000  0.017768     12.000000
 -0.000000  0.121978  0.053304      6.000000
  0.035212  0.142307  0.059226     12.000000
 -0.281695 -0.040659  0.005923     12.000000
 -0.246483 -0.020330  0.011845     12.000000
 -0.211271  0.000000  0.017768     12.000000
[...]
 -0.211271 -0.121978  0.017768      6.000000
 -0.000000  0.040659  0.065149      6.000000
  0.035212  0.060989  0.071072     12.000000
 -0.281695 -0.121978  0.017768     12.000000
 -0.246483 -0.101648  0.023691     12.000000
  0.000000  0.081318  0.076994      6.000000
 -0.316907 -0.101648  0.023691     12.000000
 -0.281695 -0.081318  0.029613      6.000000
  0.000000 -0.284614 -0.029613      6.000000
  0.000000  0.000000  0.071072      2.000000
[...]
   0.50000000  0.40000000  0.10000000       0.012
  -0.40000000  0.40000000  0.10000000       0.012
  -0.30000000  0.40000000  0.10000000       0.012
  -0.20000000  0.40000000  0.10000000       0.012
[...]
  -0.30000000  0.30000000  0.30000000       0.006
   0.40000000  0.40000000  0.30000000       0.006
   0.50000000  0.40000000  0.30000000       0.012
  -0.40000000  0.40000000  0.30000000       0.012
  -0.30000000  0.40000000  0.30000000       0.012
   0.50000000  0.50000000  0.30000000       0.006
  -0.40000000  0.50000000  0.30000000       0.012
  -0.30000000  0.50000000  0.30000000       0.006
  -0.40000000 -0.40000000  0.30000000       0.006
   0.40000000  0.40000000  0.40000000       0.002
   0.50000000  0.40000000  0.40000000       0.006
  -0.40000000  0.40000000  0.40000000       0.006
   0.50000000  0.50000000  0.40000000       0.006
  -0.40000000  0.50000000  0.40000000       0.006
   0.50000000  0.50000000  0.50000000       0.001

 position of ions in fractional coordinates (direct lattice)
   0.00000000  0.00000000  0.00000000
   0.50000000  0.50000000  0.50000000
   0.10956715  0.10956715  0.10956715
   0.89043285  0.89043285  0.89043285

 position of ions in cartesian coordinates  (Angst):
   0.00000000  0.00000000  0.00000000
  -0.00000000  0.00000000  8.44217275
  -0.00000000  0.00000000  1.84996962
  -0.00000000  0.00000001 15.03437589

 k-point  1 :   0.0000 0.0000 0.0000  plane waves:    1191
 k-point  2 :   0.1000 0.0000-0.0000  plane waves:    1182
 k-point  3 :   0.2000-0.0000 0.0000  plane waves:    1159
 k-point  4 :   0.3000 0.0000-0.0000  plane waves:    1150
 k-point  5 :   0.4000-0.0000 0.0000  plane waves:    1142
 k-point  6 :   0.5000-0.0000 0.0000  plane waves:    1140
 k-point  7 :   0.1000 0.1000 0.0000  plane waves:    1176
 k-point  8 :   0.2000 0.1000-0.0000  plane waves:    1159
 k-point  9 :   0.3000 0.1000 0.0000  plane waves:    1161
 k-point 10 :   0.4000 0.1000 0.0000  plane waves:    1150
 k-point 11 :   0.5000 0.1000 0.0000  plane waves:    1146
 k-point 12 :  -0.4000 0.1000-0.0000  plane waves:    1146
 k-point 13 :  -0.3000 0.1000 0.0000  plane waves:    1144
 k-point 14 :  -0.2000 0.1000 0.0000  plane waves:    1154
 k-point 15 :  -0.1000 0.1000 0.0000  plane waves:    1161
 k-point 16 :   0.2000 0.2000 0.0000  plane waves:    1152
 k-point 17 :   0.3000 0.2000 0.0000  plane waves:    1148
 k-point 18 :   0.4000 0.2000 0.0000  plane waves:    1150
 k-point 19 :   0.5000 0.2000-0.0000  plane waves:    1150
 k-point 20 :  -0.4000 0.2000 0.0000  plane waves:    1147
 k-point 21 :  -0.3000 0.2000-0.0000  plane waves:    1147
 k-point 22 :  -0.2000 0.2000 0.0000  plane waves:    1147
 k-point 23 :   0.3000 0.3000 0.0000  plane waves:    1155
 k-point 24 :   0.4000 0.3000-0.0000  plane waves:    1146
 k-point 25 :   0.5000 0.3000 0.0000  plane waves:    1149
 k-point 26 :  -0.4000 0.3000 0.0000  plane waves:    1147
 k-point 27 :  -0.3000 0.3000 0.0000  plane waves:    1152
 k-point 28 :   0.4000 0.4000 0.0000  plane waves:    1150
 k-point 29 :   0.5000 0.4000 0.0000  plane waves:    1146
 k-point 30 :  -0.4000 0.4000 0.0000  plane waves:    1154
 k-point 31 :   0.5000 0.5000 0.0000  plane waves:    1142
 k-point 32 :   0.1000 0.1000 0.1000  plane waves:    1185
 k-point 33 :   0.2000 0.1000 0.1000  plane waves:    1170
 k-point 34 :   0.3000 0.1000 0.1000  plane waves:    1167
 k-point 35 :   0.4000 0.1000 0.1000  plane waves:    1155
 k-point 36 :   0.5000 0.1000 0.1000  plane waves:    1140
 k-point 37 :  -0.4000 0.1000 0.1000  plane waves:    1138
 k-point 38 :  -0.3000 0.1000 0.1000  plane waves:    1139
 k-point 39 :  -0.2000 0.1000 0.1000  plane waves:    1141
 k-point 40 :  -0.1000 0.1000 0.1000  plane waves:    1154
 k-point 41 :   0.2000 0.2000 0.1000  plane waves:    1174
 k-point 42 :   0.3000 0.2000 0.1000  plane waves:    1161
 k-point 43 :   0.4000 0.2000 0.1000  plane waves:    1163
 k-point 44 :   0.5000 0.2000 0.1000  plane waves:    1147
 k-point 45 :  -0.4000 0.2000 0.1000  plane waves:    1144
 k-point 46 :  -0.3000 0.2000 0.1000  plane waves:    1146
 k-point 47 :  -0.2000 0.2000 0.1000  plane waves:    1144
 k-point 48 :  -0.1000 0.2000 0.1000  plane waves:    1149
 k-point 49 :   0.3000 0.3000 0.1000  plane waves:    1157
 k-point 50 :   0.4000 0.3000 0.1000  plane waves:    1154
 k-point 51 :   0.5000 0.3000 0.1000  plane waves:    1148
 k-point 52 :  -0.4000 0.3000 0.1000  plane waves:    1150
 k-point 53 :  -0.3000 0.3000 0.1000  plane waves:    1151
 k-point 54 :  -0.2000 0.3000 0.1000  plane waves:    1145
 k-point 55 :  -0.1000 0.3000 0.1000  plane waves:    1144
 k-point 56 :   0.4000 0.4000 0.1000  plane waves:    1158
 k-point 57 :   0.5000 0.4000 0.1000  plane waves:    1151
 k-point 58 :  -0.4000 0.4000 0.1000  plane waves:    1151
 k-point 59 :  -0.3000 0.4000 0.1000  plane waves:    1146
 k-point 60 :  -0.2000 0.4000 0.1000  plane waves:    1145
[...]
 k-point 85 :  -0.2000 0.3000 0.2000  plane waves:    1139
 k-point 86 :   0.4000 0.4000 0.2000  plane waves:    1157
 k-point 87 :   0.5000 0.4000 0.2000  plane waves:    1154
 k-point 88 :  -0.4000 0.4000 0.2000  plane waves:    1149
 k-point 89 :  -0.3000 0.4000 0.2000  plane waves:    1148
 k-point 90 :  -0.2000 0.4000 0.2000  plane waves:    1146
 k-point 91 :   0.5000 0.5000 0.2000  plane waves:    1162
 k-point 92 :  -0.4000 0.5000 0.2000  plane waves:    1155
 k-point 93 :  -0.3000 0.5000 0.2000  plane waves:    1152
 k-point 94 :  -0.2000 0.5000 0.2000  plane waves:    1144
 k-point 95 :  -0.4000-0.4000 0.2000  plane waves:    1141
 k-point 96 :  -0.3000-0.4000 0.2000  plane waves:    1147
 k-point 97 :  -0.3000-0.3000 0.2000  plane waves:    1142
 k-point 98 :   0.3000 0.3000 0.3000  plane waves:    1168
 k-point 99 :   0.4000 0.3000 0.3000  plane waves:    1167
 k-point ** :   0.5000 0.3000 0.3000  plane waves:    1160
 k-point ** :  -0.4000 0.3000 0.3000  plane waves:    1154
 k-point ** :  -0.3000 0.3000 0.3000  plane waves:    1145
 k-point ** :   0.4000 0.4000 0.3000  plane waves:    1164
 k-point ** :   0.5000 0.4000 0.3000  plane waves:    1158
 k-point ** :  -0.4000 0.4000 0.3000  plane waves:    1162
 k-point ** :  -0.3000 0.4000 0.3000  plane waves:    1155
 k-point ** :   0.5000 0.5000 0.3000  plane waves:    1165
 k-point ** :  -0.4000 0.5000 0.3000  plane waves:    1158
 k-point ** :  -0.3000 0.5000 0.3000  plane waves:    1148
 k-point ** :  -0.4000-0.4000 0.3000  plane waves:    1160
 k-point ** :   0.4000 0.4000 0.4000  plane waves:    1159
 k-point ** :   0.5000 0.4000 0.4000  plane waves:    1161
 k-point ** :  -0.4000 0.4000 0.4000  plane waves:    1158
 k-point ** :   0.5000 0.5000 0.4000  plane waves:    1160
 k-point ** :  -0.4000 0.5000 0.4000  plane waves:    1158
 k-point ** :   0.5000 0.5000 0.5000  plane waves:    1156

 maximum and minimum number of plane-waves per node :      1191     1130

 maximum number of plane-waves:      1191
 maximum index in each direction:
   IXMAX=   11   IYMAX=   11   IZMAX=   11
   IXMIN=  -11   IYMIN=  -11   IZMIN=  -11

 serial   3D FFT for wavefunctions
 parallel 3D FFT for charge:
    minimum data exchange during FFTs selected (reduces bandwidth)

 Broyden mixing: mesh for mixing (old mesh)
   NGX = 23   NGY = 23   NGZ = 23
  (NGX  = 96   NGY  = 96   NGZ  = 96)
  gives a total of  12167 points

 charge density for first step will be calculated from the start-wavefunctions

 Maximum index for augmentation-charges        53145 (set IRDMAX)

 initial charge from wavefunction
 First call to EWALD:  gamma=   0.521
 Maximum number of real-space cells 4x 4x 4
 Maximum number of reciprocal cells 4x 4x 4

--------------------------------------- Iteration      1(   1)  ---------------------------------------

 eigenvalue-minimisations  :  9328
 total energy-change (2. order) :-0.2741805E+02  (-0.4833123E-02)
 number of electron      34.0000002 magnetization
 augmentation part       11.5396039 magnetization

 Broyden mixing:
  rms(total) = 0.63845E-01    rms(broyden)= 0.63840E-01
  rms(prec ) = 0.10282E+00
  weight for this iteration     100.00

 Free energy of the ion-electron system (eV)
  alpha Z        PSCENC =       167.30580229
  Ewald energy   TEWEN  =     -3351.26154090
  -Hartree energ DENC   =     -2402.76994556
  -exchange      EXHF   =         0.00000000
  -V(xc)+E(xc)   XCENC  =       180.99994438
  PAW double counting   =      5404.74766901    -5729.75740160
  entropy T*S    EENTRO =        -0.00000000
  eigenvalues    EBANDS =      -590.18363415
  atomic energy  EATOM  =      6293.50105541
  Solvation  Ediel_sol  =         0.00000000
  free energy    TOTEN  =       -27.41805112 eV

  energy without entropy =      -27.41805112  energy(sigma->0) =      -27.41805112

[...]

 eigenvalue-minimisations  : 11310
 total energy-change (2. order) : 0.9034072E-03  (-0.4951315E-02)
 number of electron      34.0000002 magnetization
 augmentation part       11.6297443 magnetization

[...]

 eigenvalues of (default mixing * dielectric matrix)
  average eigenvalue GAMMA=   0.4903
  0.4903

[...]

 eigenvalue-minimisations  : 10918
 total energy-change (2. order) : 0.6062572E-05  (-0.1007804E-05)
 number of electron      34.0000002 magnetization
 augmentation part       11.5845318 magnetization

[...]

 Broyden mixing:
  rms(total) = 0.62763E-04    rms(broyden)= 0.62673E-04
  rms(prec ) = 0.89786E-04
  weight for this iteration     100.00

 eigenvalues of (default mixing * dielectric matrix)
  average eigenvalue GAMMA=   1.3306
  2.6994  1.7478  0.4493  0.9118  1.1392  1.1392  1.2789  1.2789

[...]

--------------------------------------- Iteration      1(  10)  ---------------------------------------

 eigenvalue-minimisations  :  9389
 total energy-change (2. order) :-0.7468407E-07  (-0.3709765E-07)
 number of electron      34.0000002 magnetization
 augmentation part       11.5843725 magnetization

 Free energy of the ion-electron system (eV)
  alpha Z        PSCENC =       167.30580229
  Ewald energy   TEWEN  =     -3351.26154090
  -Hartree energ DENC   =     -2400.68243951
  -exchange      EXHF   =         0.00000000
  -V(xc)+E(xc)   XCENC  =       180.92938992
  PAW double counting   =      5402.12841103    -5725.96144878
  entropy T*S    EENTRO =        -0.00000000
  eigenvalues    EBANDS =      -593.37047223
  atomic energy  EATOM  =      6293.50105541
  Solvation  Ediel_sol  =         0.00000000
  free energy    TOTEN  =       -27.41124277 eV

  energy without entropy =      -27.41124277  energy(sigma->0) =      -27.41124277

 average (electrostatic) potential at core
  the test charge radii are     0.8846  1.0406  0.7215
  (the norm of the test charge is              1.0000)
       1 -76.0590       2 -50.7213       3 -69.6791       4 -69.6791

 E-fermi :   6.7334     XC(G=0): -11.9997     alpha+bet :-13.2705

 k-point     1 :       0.0000    0.0000    0.0000
  band No.  band energies     occupation
      1    -105.4658      2.00000
      2     -63.1609      2.00000
      3     -62.9498      2.00000
      4     -62.9498      2.00000
      5     -15.2680      2.00000
      6     -13.0906      2.00000
      7      -2.5931      2.00000
      8       1.8899      2.00000
      9       1.9938      2.00000
     10       1.9938      2.00000
     11       2.0499      2.00000
     12       3.1945      2.00000
     13       3.1945      2.00000
     14       4.0304      2.00000
     15       4.0304      2.00000
     16       4.8161      2.00000
     17       4.8161      2.00000
     18       7.7750      0.00000
     19      11.9090      0.00000
     20      13.1315      0.00000
     21      17.5390      0.00000
     22      19.6689      0.00000
     23      19.6635      0.00000
     24      24.6630      0.00000
     25      25.6272      0.00000
     26      25.9369      0.00000
     27      26.9562      0.00000
     28      26.9578      0.00000
     29      27.2171      0.00000
     30      30.2152      0.00000
     31      31.0470      0.00000
     32      31.0567      0.00000
     33      31.8727      0.00000
     34      21.5181      0.00000
     35      25.3601      0.00000
     36      37.0701      0.00000

[...]

 k-point   116 :       0.5000    0.5000    0.5000
  band No.  band energies     occupation
      1    -105.4657      2.00000
      2     -63.1599      2.00000
      3     -62.9493      2.00000
      4     -62.9493      2.00000
      5     -15.1621      2.00000
      6     -13.2877      2.00000
      7      -1.3028      2.00000
      8       0.0623      2.00000
      9       2.0820      2.00000
     10       2.3127      2.00000
     11       2.3127      2.00000
     12       2.6706      2.00000
     13       2.6706      2.00000
     14       4.0311      2.00000
     15       4.0311      2.00000
     16       5.0462      2.00000
     17       5.0462      2.00000
     18       9.4447      0.00000
     19      10.3913      0.00000
     20      13.0566      0.00000
     21      18.1128      0.00000
     22      19.4704      0.00000
     23      18.2336      0.00000
     24      20.6508      0.00000
     25      21.5902      0.00000
     26      13.6523      0.00000
     27      25.2684      0.00000
     28      25.0610      0.00000
     29      25.7878      0.00000
     30      26.2804      0.00000
     31      28.2772      0.00000
     32      28.2772      0.00000
     33      29.0501      0.00000
     34      29.0501      0.00000
     35      30.2145      0.00000
     36      31.5921      0.00000

 soft charge-density along one line, spin component           1
         0         1         2         3         4         5         6         7         8         9
 total charge-density along one line

------------------------ aborting loop because EDIFF is reached ----------------------------------------

  FORCE on cell =-STRESS in cart. coord.  units (eV):
  Direction    XX          YY          ZZ          XY          YZ          ZX
  Alpha Z   167.30580   167.30580   167.30580
  Ewald   -1091.26741 -1091.26741 -1168.72954    -0.00000     0.00000     0.00000
  Hartree   902.04274   902.04274   596.61171    -0.00000     0.00000     0.00000
  E(xc)    -218.97930  -218.97930  -218.43877     0.00000     0.00000    -0.00000
  Local    -384.58502  -384.58502    18.53011     0.00000    -0.00000    -0.00000
  n-local  -197.92325  -197.50827  -200.31364     0.30338     0.62622    -0.66447
  augment   206.91746   206.91746   200.76402     0.00000     0.00000     0.00000
  Kinetic   617.35714   615.29587   604.30842    -4.41564    -0.88124    -0.13792
  Fock        0.00000     0.00000     0.00000     0.00000     0.00000     0.00000
  Total       0.04501     0.04501     0.03812     0.00000     0.00000     0.00000
  in kB       1.83436     1.83436     1.55355     0.00000     0.00000     0.00000

 VOLUME and BASIS-vectors are now :
  energy-cutoff  :      550.00
  volume of cell :       39.31
      direct lattice vectors                 reciprocal lattice vectors
     1.419974791  0.819822829  5.628115168     0.352118927  0.203295958  0.059226459
    -1.419974791  0.819822829  5.628115168    -0.352118927  0.203295958  0.059226459
    -0.000000000 -1.639645649  5.628115168     0.000000000 -0.406591916  0.059226459

  length of vectors
     5.862091625  5.862091625  5.862091623     0.410882902  0.410882902  0.410882902

 FORCES acting on ions
    electron-ion (+dipol)            ewald-force                    non-local-force                 convergence-correction
   0.185E-13 0.111E-12 -.147E-12   0.138E-13 -.122E-13 0.000E+00   0.165E-21 -.551E-21 -.124E-21   0.729E-13 0.118E-12 0.873E-15
   -.451E-12 -.538E-12 -.557E-12   -.577E-14 -.219E-15 0.568E-13   -.128E-22 0.192E-23 -.923E-22   -.297E-15 -.445E-15 -.157E-14
   0.183E-10 -.139E-06 -.348E+03   -.319E-13 0.429E-07 0.344E+03   -.231E-15 0.260E-08 0.444E+01   0.115E-12 0.345E-12 0.530E-03
   -.189E-10 0.139E-06 0.348E+03   0.327E-13 -.429E-07 -.344E+03   0.233E-15 -.260E-08 -.444E+01   -.813E-13 -.284E-12 -.530E-03
   -.105E-11 -.749E-11 -.966E-11   0.878E-14 -.944E-14 0.568E-13   0.221E-17 -.352E-16 0.178E-14   0.106E-12 0.178E-12 -.471E-14

 POSITION                                       TOTAL-FORCE (eV/Angst)
      0.00000      0.00000      0.00000         0.000000      0.000000     -0.000000
     -0.00000      0.00000      8.44217         0.000000      0.000000     -0.000000
     -0.00000      0.00000      1.84997         0.000000     -0.000000     -0.002652
     -0.00000      0.00000     15.03438        -0.000000      0.000000      0.002652
    total drift:                               -0.000000     -0.000000     -0.000000

  FREE ENERGIE OF THE ION-ELECTRON SYSTEM (eV)
  free  energy   TOTEN  =       -27.41124277 eV

  energy  without entropy=      -27.41124277  energy(sigma->0) =      -27.41124277

 writing wavefunctions