 vasp.5.4.4.18Apr17-6-g9f103f2a35 (build Dec 13 2019 19:06:22) complex

 executed on             LinuxIFC date 2021.07.02  09:37:19

 INCAR:
 POTCAR:    PAW_PBE Cu_sv_GW 05Dec2013
 POTCAR:    PAW_PBE Al_GW 19Mar2012
 POTCAR:    PAW_PBE O_GW 28Sep2005

 POTCAR:    PAW_PBE Cu_sv_GW 05Dec2013
   VRHFIN =Cu: d10 p1

   TITEL  = PAW_PBE Cu_sv_GW 05Dec2013
   POMASS =   63.546; ZVAL   =   19.000    mass and valenz
   ENMAX  =  391.688; ENMIN  =  293.766 eV

 POTCAR:    PAW_PBE Al_GW 19Mar2012
   VRHFIN =Al: s2p1

   TITEL  = PAW_PBE Al_GW 19Mar2012
   POMASS =   26.982; ZVAL   =    3.000    mass and valenz
   ENMAX  =  240.300; ENMIN  =  180.225 eV

 POTCAR:    PAW_PBE O_GW 28Sep2005
   VRHFIN =O: s2p4

   TITEL  = PAW_PBE O_GW 28Sep2005
   POMASS =   16.000; ZVAL   =    6.000    mass and valenz
   ENMAX  =  414.635; ENMIN  =  310.976 eV

  PAW_PBE Cu_sv_GW 05Dec2013            :
  PAW_PBE Al_GW 19Mar2012               :
  PAW_PBE O_GW 28Sep2005                :

 POSCAR: CuAlO2 BenkoF84
  positions in direct lattice
 exchange correlation table for  LEXCH =       14
   RHO(1)=    0.500       N(1)  =     2000
   RHO(2)=  100.500       N(2)  =     4000

 ion  position               nearest neighbor table
   1  0.000  0.000  0.000-   3 1.85   4 1.85
   2  0.500  0.500  0.500-   3 1.90   4 1.90   3 1.90   3 1.90   4 1.90   4 1.90
   3  0.110  0.110  0.110-   1 1.85   2 1.90   2 1.90   2 1.90
   4  0.890  0.890  0.890-   1 1.85   2 1.90   2 1.90   2 1.90

  LATTYP: Found a trigonal (rhomboedric) cell.
 ALAT       =     5.8622747487
 COS(alpha) =     0.8826433487

  Lattice vectors:

 A1 = (   1.4200545446,   0.8198688751,   5.6282790774)
 A2 = (  -1.4200545446,   0.8198688751,   5.6282790774)
 A3 = (   0.0000000000,  -1.6397377402,   5.6282790774)

Analysis of symmetry for initial positions (statically):
 Subroutine PRICEL returns:
 Original cell was already a primitive cell.

 Routine SETGRP: Setting up the symmetry group for a
 trigonal (rhombohedral) supercell.

 Subroutine GETGRP returns: Found 12 space group operations
 (whereof 12 operations were pure point group operations)
 out of a pool of 12 trial point group operations.

The static configuration has the point symmetry D_3d.

Analysis of symmetry for dynamics (positions and initial velocities):
 Subroutine PRICEL returns:
 Original cell was already a primitive cell.

[...]

The dynamic configuration has the point symmetry D_3d.

 Subroutine INISYM returns: Found 12 space group operations
 (whereof 12 operations are pure point group operations),
 and found     1 'primitive' translations

 KPOINTS: CuMO2

Automatic generation of k-mesh.
Space group operators:
 irot       det(A)        alpha          n_x          n_y          n_z        tau_x        tau_y        tau_z
    1     1.000000     0.000000     1.000000     0.000000     0.000000     0.000000     0.000000     0.000000
    2    -1.000000     0.000000     1.000000     0.000000     0.000000     0.000000     0.000000     0.000000
    3     1.000000   180.000000    -0.500000     0.866025    -0.000000     0.000000     0.000000     0.000000
    4    -1.000000   180.000000    -0.500000     0.866025    -0.000000     0.000000     0.000000     0.000000
    5     1.000000   120.000000     0.000000    -0.000000    -1.000000     0.000000     0.000000     0.000000
    6    -1.000000   120.000000     0.000000    -0.000000    -1.000000     0.000000     0.000000     0.000000
    7     1.000000   180.000000     1.000000     0.000000     0.000000     0.000000     0.000000     0.000000
    8    -1.000000   180.000000     1.000000     0.000000     0.000000     0.000000     0.000000     0.000000
    9     1.000000   120.000000     0.000000     0.000000     1.000000     0.000000     0.000000     0.000000
   10    -1.000000   120.000000     0.000000     0.000000     1.000000     0.000000     0.000000     0.000000
   11     1.000000   180.000000     0.500000     0.866025    -0.000000     0.000000     0.000000     0.000000
   12    -1.000000   180.000000     0.500000     0.866025    -0.000000     0.000000     0.000000     0.000000

 Subroutine IBZKPT returns following result:

 Found    116 irreducible k-points:

 Following reciprocal coordinates:
            Coordinates               Weight
  0.000000  0.000000  0.000000      1.000000
  0.100000  0.000000  0.000000      6.000000
  0.200000  0.000000  0.000000      6.000000
  0.300000  0.000000  0.000000      6.000000
  0.400000  0.000000  0.000000      6.000000
  0.500000  0.000000  0.000000      3.000000
  0.100000  0.100000  0.000000      6.000000
  0.200000  0.100000  0.000000     12.000000
  0.300000  0.100000  0.000000     12.000000
  0.400000  0.100000  0.000000     12.000000
  0.500000  0.100000  0.000000     12.000000
 -0.400000  0.100000 -0.000000     12.000000
 -0.300000  0.100000 -0.000000     12.000000
 -0.200000  0.100000 -0.000000     12.000000
 -0.100000  0.100000  0.000000      6.000000
  0.200000  0.200000  0.000000      6.000000
  0.300000  0.200000  0.000000     12.000000
  0.400000  0.200000  0.000000     12.000000
  0.500000  0.200000 -0.000000     12.000000
 -0.400000  0.200000 -0.000000     12.000000
 -0.300000  0.200000 -0.000000     12.000000
 -0.200000  0.200000  0.000000      6.000000
  0.300000  0.300000  0.000000      6.000000
  0.400000  0.300000  0.000000     12.000000
  0.500000  0.300000  0.000000     12.000000
 -0.400000  0.300000  0.000000     12.000000
 -0.300000  0.300000  0.000000      6.000000
  0.400000  0.400000  0.000000      6.000000
  0.500000  0.400000 -0.000000     12.000000
 -0.400000  0.400000  0.000000      6.000000
  0.500000  0.500000  0.000000      3.000000
  0.100000  0.100000  0.100000      2.000000
  0.200000  0.100000  0.100000      6.000000
  0.300000  0.100000  0.100000      6.000000
  0.400000  0.100000  0.100000      6.000000
  0.500000  0.100000  0.100000      6.000000
 -0.400000  0.100000  0.100000      6.000000
 -0.300000  0.100000  0.100000      6.000000
 -0.200000  0.100000  0.100000      6.000000
 -0.100000  0.100000  0.100000      6.000000
  0.200000  0.200000  0.100000      6.000000
  0.300000  0.200000  0.100000     12.000000
  0.400000  0.200000  0.100000     12.000000
  0.500000  0.200000  0.100000     12.000000
 -0.400000  0.200000  0.100000     12.000000
 -0.300000  0.200000  0.100000     12.000000
 -0.200000  0.200000  0.100000     12.000000
 -0.100000  0.200000  0.100000     12.000000
  0.300000  0.300000  0.100000      6.000000
  0.400000  0.300000  0.100000     12.000000
  0.500000  0.300000  0.100000     12.000000
 -0.400000  0.300000  0.100000     12.000000
 -0.300000  0.300000  0.100000     12.000000
 -0.200000  0.300000  0.100000     12.000000
 -0.100000  0.300000  0.100000     12.000000
  0.400000  0.400000  0.100000      6.000000
  0.500000  0.400000  0.100000     12.000000
 -0.400000  0.400000  0.100000     12.000000
 -0.300000  0.400000  0.100000     12.000000
 -0.200000  0.400000  0.100000     12.000000
[...]
 -0.300000  0.300000  0.300000      6.000000
  0.400000  0.400000  0.300000      6.000000
  0.500000  0.400000  0.300000     12.000000
 -0.400000  0.400000  0.300000     12.000000
 -0.300000  0.400000  0.300000     12.000000
  0.500000  0.500000  0.300000      6.000000
 -0.400000  0.500000  0.300000     12.000000
 -0.300000  0.500000  0.300000      6.000000
 -0.400000 -0.400000  0.300000      6.000000
  0.400000  0.400000  0.400000      2.000000
  0.500000  0.400000  0.400000      6.000000
 -0.400000  0.400000  0.400000      6.000000
  0.500000  0.500000  0.400000      6.000000
 -0.400000  0.500000  0.400000      6.000000
  0.500000  0.500000  0.500000      1.000000

 Following cartesian coordinates:
            Coordinates               Weight
  0.000000  0.000000  0.000000      1.000000
  0.035210  0.020328  0.005922      6.000000
  0.070420  0.040657  0.011845      6.000000
  0.105630  0.060985  0.017767      6.000000
  0.140840  0.081314  0.023690      6.000000
  0.176050  0.101642  0.029612      3.000000
  0.000000  0.040657  0.011845      6.000000
  0.035210  0.060985  0.017767     12.000000
  0.070420  0.081314  0.023690     12.000000
  0.105630  0.101642  0.029612     12.000000
  0.140840  0.121971  0.035535     12.000000
 -0.176050 -0.060985 -0.017767     12.000000
 -0.140840 -0.040657 -0.011845     12.000000
 -0.105630 -0.020328 -0.005922     12.000000
 -0.070420  0.000000  0.000000      6.000000
 -0.000000  0.081314  0.023690      6.000000
  0.035210  0.101642  0.029612     12.000000
  0.070420  0.121971  0.035535     12.000000
  0.105630  0.142299  0.041457     12.000000
 -0.211259 -0.040657 -0.011845     12.000000
 -0.176050 -0.020328 -0.005922     12.000000
 -0.140840  0.000000  0.000000      6.000000
  0.000000  0.121971  0.035535      6.000000
  0.035210  0.142299  0.041457     12.000000
  0.070420  0.162628  0.047380     12.000000
 -0.246469 -0.020328 -0.005922     12.000000
 -0.211259 -0.000000  0.000000      6.000000
 -0.000000  0.162628  0.047380      6.000000
  0.035210  0.182956  0.053302     12.000000
 -0.281679  0.000000  0.000000      6.000000
  0.000000  0.203285  0.059225      3.000000
 -0.000000  0.000000  0.017767      2.000000
  0.035210  0.020328  0.023690      6.000000
  0.070420  0.040657  0.029612      6.000000
  0.105630  0.060985  0.035535      6.000000
  0.140840  0.081314  0.041457      6.000000
 -0.176050 -0.101642 -0.011845      6.000000
 -0.140840 -0.081314 -0.005922      6.000000
 -0.105630 -0.060985  0.000000      6.000000
 -0.070420 -0.040657  0.005922      6.000000
  0.000000  0.040657  0.029612      6.000000
  0.035210  0.060985  0.035535     12.000000
  0.070420  0.081314  0.041457     12.000000
  0.105630  0.101642  0.047380     12.000000
 -0.211259 -0.081314 -0.005922     12.000000
 -0.176050 -0.060985  0.000000     12.000000
 -0.140840 -0.040657  0.005922     12.000000
 -0.105630 -0.020328  0.011845     12.000000
  0.000000  0.081314  0.041457      6.000000
  0.035210  0.101642  0.047380     12.000000
  0.070420  0.121971  0.053302     12.000000
 -0.246469 -0.060985  0.000000     12.000000
 -0.211259 -0.040657  0.005922     12.000000
 -0.176050 -0.020328  0.011845     12.000000
 -0.140840 -0.000000  0.017767     12.000000
  0.000000  0.121971  0.053302      6.000000
  0.035210  0.142299  0.059225     12.000000
 -0.281679 -0.040657  0.005922     12.000000
 -0.246469 -0.020328  0.011845     12.000000
 -0.211259 -0.000000  0.017767     12.000000
[...]
 -0.211259 -0.121971  0.017767      6.000000
 -0.000000  0.040657  0.065147      6.000000
  0.035210  0.060985  0.071070     12.000000
 -0.281679 -0.121971  0.017767     12.000000
 -0.246469 -0.101642  0.023690     12.000000
  0.000000  0.081314  0.076992      6.000000
 -0.316889 -0.101642  0.023690     12.000000
 -0.281679 -0.081314  0.029612      6.000000
  0.000000 -0.284598 -0.029612      6.000000
  0.000000  0.000000  0.071070      2.000000
  0.035210  0.020328  0.076992      6.000000
 -0.281679 -0.162628  0.023690      6.000000
  0.000000  0.040657  0.082915      6.000000
 -0.316889 -0.142299  0.029612      6.000000
 -0.000000 -0.000000  0.088837      1.000000

 Subroutine IBZKPT_HF returns following result:

 Found   1000 k-points in 1st BZ
[...]

  energy without entropy =       -0.14715242

[...]

 change of polarisation eV/A/(eV/A) component  1 :     1.167     0.265     0.030
 dielectric tensor                  component  1 :     6.370     1.221     0.138

[...]

The dynamic configuration has the point symmetry C_1h.

[...]

 Linear response to external field (no local field effect), progress :
  Direction:   3
  LATTYP: Found a trigonal (rhomboedric) cell.
 ALAT       =     5.8622747487
 COS(alpha) =     0.8826433487

[...]

The dynamic configuration has the point symmetry C_3v.

[...]

 HEAD OF MICROSCOPIC STATIC DIELECTRIC TENSOR (INDEPENDENT PARTICLE, excluding Hartree and local field effects)
           6.624213    -0.000000    -0.000000
          -0.000000     6.624213     0.000000
          -0.000000     0.000000     4.713584

 Linear response to external field, progress :
  Direction:   1
  LATTYP: Found a trigonal (rhomboedric) cell.
 ALAT       =     5.8622747487
 COS(alpha) =     0.8826433487

[...]

 PIEZOELECTRIC TENSOR FIELD DIRECTION 1  (e Angst)
     0.00062 -0.00000 -0.00000           (  0.00025 -0.00000 -0.00000)
    -0.00000  0.00032 -0.00010           ( -0.00000  0.00004  0.00000)
    -0.00000 -0.00010  0.00358           ( -0.00000  0.00000  0.00088)

 PIEZOELECTRIC TENSOR FIELD DIRECTION 1  (C/m^2)
     0.00025 -0.00000 -0.00000
    -0.00000  0.00013 -0.00004
    -0.00000 -0.00004  0.00146

      POSITION         DIRECTION 1           BORN EFFECTIVE CHARGE    (rigid.aug.   ionic)
      0.00000      0.00000      0.00000     0.87851  0.00000  0.00000 (-10.37829 19.00000)
      0.00000      0.00000      8.44242     3.05747  0.00000 -0.00000 (  0.02153  3.00000)
     -0.00000      0.00000      1.84997    -1.96482  0.00006  0.00020 ( -0.61379  6.00000)
      0.00000      0.00000     15.03487    -1.96482 -0.00006 -0.00020 ( -0.61379  6.00000)
    total drift (improves with k-points):   0.00634 -0.00000  0.00000

[...]

The dynamic configuration has the point symmetry C_1h.

[...]

 Linear response to external field, progress :
  Direction:   3
  LATTYP: Found a trigonal (rhomboedric) cell.
 ALAT       =     5.8622747487
 COS(alpha) =     0.8826433487

[...]

 change of polarisation eV/A/(eV/A) component  3 :     0.030     0.015     0.786
 dielectric tensor                  component  3 :     0.140     0.068     4.619

 PIEZOELECTRIC TENSOR FIELD DIRECTION 3  (e Angst)
    -0.00012  0.00000 -0.00000           ( -0.00003  0.00000 -0.00000)
     0.00000 -0.00012  0.00000           (  0.00000 -0.00003  0.00000)
    -0.00000  0.00000  0.00016           ( -0.00000  0.00000  0.00002)

 PIEZOELECTRIC TENSOR FIELD DIRECTION 3  (C/m^2)
    -0.00005  0.00000 -0.00000
     0.00000 -0.00005  0.00000
    -0.00000  0.00000  0.00007

      POSITION         DIRECTION 3           BORN EFFECTIVE CHARGE    (rigid.aug.   ionic)
      0.00000      0.00000      0.00000    -0.00000 -0.00000  1.49356 (-10.37829 19.00000)
      0.00000      0.00000      8.44242    -0.00000 -0.00000  2.96030 (  0.02153  3.00000)
     -0.00000      0.00000      1.84997     0.00000 -0.00000 -2.22367 ( -0.61379  6.00000)
      0.00000      0.00000     15.03487    -0.00000 -0.00000 -2.22363 ( -0.61379  6.00000)
    total drift (improves with k-points):  -0.00000 -0.00000  0.00656

[...]

 MACROSCOPIC STATIC DIELECTRIC TENSOR (including local field effects in DFT)
           6.312106    -0.000000    -0.000000
           0.000000     6.312106     0.000000
          -0.000000     0.000000     4.618906

 Linear response:
   Degrees of freedom DOF   =            6
 Linear response progress:
  Degree of freedom:   1/  6
  LATTYP: Found a trigonal (rhomboedric) cell.
 ALAT       =     5.8622747487
 COS(alpha) =     0.8826433487

[...]

 INTERNAL STRAIN TENSOR  FOR ION    1  DIRECTION 1   (eV/Angst):
     0.01299  0.00000  0.00000
     0.00000 -0.00417  0.00034
     0.00000  0.00017 -0.00304

 POSITION                   FORCE-CONSTANT FOR ION    1 DIRECTION 1 (eV/Angst/Angst)
      0.00000      0.00000      0.00000        -2.762982     -0.000000     -0.000000
      0.00000      0.00000      8.44242         0.034033      0.000000      0.000000
     -0.00000      0.00000      1.84997         1.364474      0.000287     -0.000345
      0.00000      0.00000     15.03487         1.364474     -0.000287      0.000345
    total drift:                                0.000000      0.000000     -0.000000

 BORN EFFECTIVE CHARGE FOR ION    1 DIRECTION 1 :   0.878  -0.000  -0.000
                   rigid augmentation           : -10.378  -0.000  -0.000
                   ionic contribution           :  19.000  -0.000  -0.000
                   Berry contribution           :  -7.743   0.000   0.000

 Linear response progress:
  Degree of freedom:   2/  6
  LATTYP: Found a trigonal (rhomboedric) cell.
 ALAT       =     5.8622747487
 COS(alpha) =     0.8826433487

[...]

The dynamic configuration has the point symmetry C_1 .

[...]

 Linear response progress:
  Degree of freedom:   6/  6
  LATTYP: Found a trigonal (rhomboedric) cell.
 ALAT       =     5.8622747487
 COS(alpha) =     0.8826433487

[...]

The dynamic configuration has the point symmetry C_3v.

[...]

----------------------------------------- Iteration   12(  14)  ---------------------------------------

 Broyden mixing:
  rms(total) = 0.23499E-04    rms(broyden)= 0.23278E-04
  rms(prec ) = 0.33394E-04
  weight for this iteration     100.00

 eigenvalues of (default mixing * dielectric matrix)
  average eigenvalue GAMMA=   1.6146
  3.6257  2.7700  2.3428  1.8709  1.8709  1.6153  0.5065  1.1377  0.9954  0.9954
  0.8938  0.7510

 Free energy of the ion-electron system (eV)
  -Hartree energ DENC   =        -0.15919199
  -V(xc)+E(xc)   XCENC  =         0.00009469
  PAW double counting   =         0.01110136       -0.01111811
  entropy T*S    EENTRO =        -0.00000000
  eigenvalues    EBANDS =        -0.25356752
  free energy    TOTEN  =        -0.41268156 eV

  energy without entropy =       -0.41268156

[...]

 k-point 116 :       0.5000    0.5000    0.5000
  band No.  band energies     occupation
      1      -1.3050      0.00000
      2      -1.0246      0.00000
      3      -1.4154      0.00000
      4      -1.4154      0.00000
      5      -1.4684      0.00000
      6       1.7592      0.00000
      7       1.7424      0.00000
      8       1.0113      0.00000
      9       0.0528      0.00000
     10      -1.4319      0.00000
     11      -1.4319      0.00000
     12       0.7948      0.00000
     13       0.7948      0.00000
     14      -1.4261      0.00000
     15      -1.4261      0.00000
     16      -2.0285      0.00000
     17      -2.0285      0.00000
     18      -5.2848      0.00000
     19       1.2658      0.00000
     20       0.9275      0.00000
     21       0.7546      0.00000
     22       1.2337      0.00000
     23       1.2337      0.00000
     24       1.6184      0.00000
     25       1.6184      0.00000
     26       5.5334      0.00000
     27       0.1282      0.00000
     28       0.1282      0.00000
     29       0.4800      0.00000
     30       0.6961      0.00000
     31      -0.0890      0.00000
     32      -0.0890      0.00000
     33       4.1712      0.00000
     34       4.1712      0.00000
     35      -2.4954      0.00000
     36       0.2033      0.00000

------------------------ aborting loop because EDIFF is reached ----------------------------------------

 INTERNAL STRAIN TENSOR  FOR ION    3  DIRECTION 3   (eV/Angst):
     7.26548  0.00000  0.00000
     0.00000  7.26548 -0.00000
     0.00000 -0.00000 -5.18097

 POSITION                   FORCE-CONSTANT FOR ION    3 DIRECTION 3 (eV/Angst/Angst)
      0.00000      0.00000      0.00000         0.000000      0.000000     10.363746
      0.00000      0.00000      8.44242        -0.000000      0.000000      9.130503
     -0.00000      0.00000      1.84997        -0.000000     -0.000000    -26.749099
      0.00000      0.00000     15.03487         0.000000      0.000000      7.254850
    total drift:                               -0.000000      0.000000     -0.000000

 BORN EFFECTIVE CHARGE FOR ION    3 DIRECTION 3 :   0.000  -0.000  -2.224
                   rigid augmentation           :  -0.000   0.000  -0.614
                   ionic contribution           :  -0.000   0.000   6.000
                   Berry contribution           :   0.000  -0.000  -7.610

  LATTYP: Found a trigonal (rhomboedric) cell.
 ALAT       =     5.8622747487
 COS(alpha) =     0.8826433487

  Lattice vectors:

 A1 = (   1.4200545446,   0.8198688751,   5.6282790774)
 A2 = (  -1.4200545446,   0.8198688751,   5.6282790774)
 A3 = (   0.0000000000,  -1.6397377402,   5.6282790774)

Analysis of symmetry for initial positions (statically):
 Subroutine PRICEL returns:
 Original cell was already a primitive cell.

[...]

The static configuration has the point symmetry D_3d.

Analysis of symmetry for dynamics (positions and initial velocities):
 Subroutine PRICEL returns:
 Original cell was already a primitive cell.

 Routine SETGRP: Setting up the symmetry group for a
 trigonal (rhombohedral) supercell.

 Subroutine GETGRP returns: Found 12 space group operations
 (whereof 12 operations were pure point group operations)
 out of a pool of 12 trial point group operations.

The dynamic configuration has the point symmetry D_3d.

 Subroutine INISYM returns: Found 12 space group operations
 (whereof 12 operations are pure point group operations),
 and found     1 'primitive' translations

 MACROSCOPIC STATIC DIELECTRIC TENSOR (including local field effects in DFT)
           6.312106    -0.000000    -0.000000
           0.000000     6.312106     0.000000
          -0.000000     0.000000     4.618906

 PIEZOELECTRIC TENSOR  for field in x, y, z        (e  Angst)
          XX          YY          ZZ          XY          YZ          ZX
  x     0.00062     0.00032     0.00358    -0.00000    -0.00010    -0.00000
  y     0.00015    -0.00049     0.00054     0.00000    -0.00005     0.00000
  z    -0.00012    -0.00012     0.00016     0.00000     0.00000    -0.00000

 PIEZOELECTRIC TENSOR  for field in x, y, z        (C/m^2)
          XX          YY          ZZ          XY          YZ          ZX
  x     0.00000     0.00000     0.00000     0.00000     0.00000     0.00000
  y     0.00000     0.00000     0.00000     0.00000     0.00000     0.00000
  z     0.00000     0.00000     0.00000     0.00000     0.00000     0.00000

 BORN EFFECTIVE CHARGES (in e, cummulative output)
 ion    1
    1     0.87693     0.00000    -0.00000
    2    -0.00000     0.87701    -0.00001
    3     0.00000    -0.00000     1.49192
 ion    2
    1     3.05588     0.00000    -0.00000
    2    -0.00000     3.05584     0.00000
    3     0.00000     0.00000     2.95866
 ion    3
    1    -1.96641     0.00006     0.00020
    2     0.00000    -1.96643     0.00008
    3     0.00000    -0.00000    -2.22531
 ion    4
    1    -1.96641    -0.00006    -0.00020
    2    -0.00000    -1.96642    -0.00007
    3    -0.00000    -0.00000    -2.22527

 INTERNAL STRAIN TENSOR FOR ION    1 for displacements in x,y,z  (eV/Angst):
          X           Y           Z          XY          YZ          ZX
  x     0.00000     0.00000     0.00000     0.00000     0.00000     0.00000
  y     0.00000     0.00000     0.00000     0.00000     0.00000     0.00000
  z     0.00000     0.00000     0.00000     0.00000     0.00000     0.00000

[...]

 INTERNAL STRAIN TENSOR FOR ION    4 for displacements in x,y,z  (eV/Angst):
          X           Y           Z          XY          YZ          ZX
  x     0.00000    -0.00000     0.00000     0.70377     0.00000    -9.21444
  y     0.70377    -0.70377     0.00000    -0.00000    -8.70335     0.00000
  z    -7.26548    -7.26548     5.18097     0.00000     0.00000     0.00000

 SECOND DERIVATIVES (NOT SYMMETRIZED)
               1X          1Y          1Z          2X          2Y          2Z          3X          3Y          3Z          4X          4Y          4Z
  1X    -2.762982    0.000000    0.000000    0.034033   -0.000000   -0.000000    1.364474   -0.000000   -0.000000    1.364474   -0.000000   -0.000000
  1Y     0.000000   -2.762982   -0.000000   -0.000000    0.034033    0.000000   -0.000000    1.364474    0.000000   -0.000000    1.364474    0.000000
  1Z     0.000000   -0.000000  -27.288518   -0.000000    0.000000    6.535253   -0.000000    0.000000   10.376632   -0.000000    0.000000   10.376632
  2X     0.044206   -0.000000   -0.000000  -13.349729    0.000000    0.000000    6.652762   -0.000000   -0.000000    6.652762   -0.000000   -0.000000
  2Y    -0.000000    0.044206    0.000000    0.000000  -13.349729   -0.000000   -0.000000    6.652762    0.000000   -0.000000    6.652762    0.000000
  2Z    -0.000000    0.000000    6.525623    0.000000   -0.000000  -24.783420   -0.000000    0.000000    9.128899   -0.000000    0.000000    9.128899
  3X     1.365326   -0.000000   -0.000000    6.661558   -0.000000   -0.000000   -9.194273    0.000000    0.000000    1.167389   -0.000000   -0.000000
  3Y    -0.000000    1.365325    0.000000   -0.000000    6.661558    0.000000    0.000000   -9.194273   -0.000000   -0.000000    1.167389    0.000000
  3Z    -0.000000    0.000000   10.363746   -0.000000    0.000000    9.130503    0.000000   -0.000000  -26.749099   -0.000000    0.000000    7.254850
  4X     1.365326   -0.000000   -0.000000    6.661558   -0.000000   -0.000000    1.167389   -0.000000   -0.000000   -9.194273    0.000000    0.000000
  4Y    -0.000000    1.365325    0.000000   -0.000000    6.661558    0.000000   -0.000000    1.167389    0.000000    0.000000   -9.194273   -0.000000
  4Z    -0.000000    0.000000   10.363746   -0.000000    0.000000    9.130503   -0.000000    0.000000    7.254850    0.000000   -0.000000  -26.749099

 Eigenvectors and eigenvalues of the dynamical matrix

   1 f  =   22.790581 THz   143.197444 2PiTHz  760.211934 cm-1    94.254301 meV
             X         Y         Z           dx          dy          dz
      0.000000  0.000000  0.000000    -0.000000    0.000000   -0.000000
      0.000000  0.000000  8.442419    -0.000000   -0.000000    0.000000
     -0.000000  0.000000  1.849970     0.000000   -0.000000   -0.707107
      0.000000  0.000000 15.034868     0.000000    0.000000    0.707107

[...]

   9 f  =    4.600667 THz    28.906842 2PiTHz  153.461719 cm-1    19.026835 meV
             X         Y         Z           dx          dy          dz
      0.000000  0.000000  0.000000     0.000000    0.691521   -0.000000
      0.000000  0.000000  8.442419    -0.000000   -0.535995    0.000000
     -0.000000  0.000000  1.849970    -0.000000   -0.342424    0.000000
      0.000000  0.000000 15.034868    -0.000000   -0.342424    0.000000

  10 f/i=    0.004830 THz     0.030347 2PiTHz    0.161106 cm-1     0.019975 meV
             X         Y         Z           dx          dy          dz
      0.000000  0.000000  0.000000    -0.000000    0.000000   -0.719924
      0.000000  0.000000  8.442419    -0.000000    0.000000   -0.469453
     -0.000000  0.000000  1.849970    -0.000000    0.000000   -0.361472
      0.000000  0.000000 15.034868    -0.000000    0.000000   -0.361472

[...]

  12 f/i=    0.005248 THz     0.032972 2PiTHz    0.175042 cm-1     0.021703 meV
             X         Y         Z           dx          dy          dz
      0.000000  0.000000  0.000000    -0.702829    0.160196    0.000000
      0.000000  0.000000  8.442419    -0.457123    0.104192    0.000000
     -0.000000  0.000000  1.849970    -0.351911    0.080211    0.000000
      0.000000  0.000000 15.034868    -0.351911    0.080211    0.000000

 MACROSCOPIC STATIC DIELECTRIC TENSOR IONIC CONTRIBUTION
           4.523349     0.000000    -0.000000
           0.000000     4.523494    -0.000002
          -0.000000    -0.000002     2.554788

 ELASTIC MODULI IONIC CONTR (kBar)
 Direction    XX          YY          ZZ          XY          YZ          ZX
 XX        -130.4172   -122.6255     90.2217     -0.0000     48.1785      0.0000
 YY        -122.6255   -130.4172     90.2217     -0.0000    -48.1785      0.0000
 ZZ          90.2217     90.2217    -64.3366     -0.0000     -0.0000      0.0000
 XY          -0.0000     -0.0000     -0.0000     -3.8958      0.0000     51.0078
 YZ          48.1785    -48.1785     -0.0000      0.0000   -595.8097     -0.0000
 ZX           0.0000      0.0000      0.0000     51.0078     -0.0000   -667.8411

 PIEZOELECTRIC TENSOR IONIC CONTR  for field in x, y, z        (C/m^2)
          XX          YY          ZZ          XY          YZ          ZX
  x     0.00003     0.00004    -0.00003    -0.00000     0.00004     0.00000
  y     0.00001     0.00001    -0.00001    -0.00000    -0.00000     0.00000
  z    -0.00000    -0.00000     0.00000    -0.00000     0.00000     0.00000